1000
Lattice="35.31206757166412 0.0 0.0 0.0 35.31206757166412 0.0 0.0 0.0 35.31206757166412" Properties=species:S:1:pos:R:3:initial_charges:R:1:momenta:R:3 pbc="T T T"
Ar      24.83239872      19.25838567      11.49480131       1.34597525       1.34568966       0.81003041       1.98365546
Ar      28.18928914      10.20522616       7.87120633      -1.34597525      -0.35915736       0.43480751       1.33899666
Ar      13.04246642      15.54452132      18.21230502      -1.34597525       0.56208748      -2.66927567       1.57769878
Ar      21.86613236      13.47415127       0.00426452      -1.34597525      -1.25477039       0.60352065      -2.01633565
Ar       0.56281885      31.28009942      28.92900768      -1.34597525       0.57757847       1.47131182       1.47326308
Ar       4.85168587      29.10841655      10.41069737       1.34597525       2.55410082      -0.20709123      -0.54619871
Ar      25.38578443       9.33183127      22.44178799      -1.34597525       1.30070930      -2.58224049       0.69753234
Ar      32.13684573      24.14754283      12.29886628       1.34597525      -1.13504142      -2.05697054      -2.62252799
Ar      21.06287890      12.84690569      17.79546213       1.34597525       0.21879786      -0.58894727       1.63344908
Ar       2.92431769       9.78397990       9.55702289      -1.34597525      -1.51121688      -1.64581003      -0.71556431
Ar       5.91874234      12.57515634       6.85777695      -1.34597525      -2.22619830      -1.23101147      -0.39961361
Ar      11.38287347       7.25282440      21.64675676      -1.34597525      -1.69505329       1.21561320       0.04472721
Ar      19.73037947      22.70613391       8.53172447      -1.34597525       1.74425176      -0.09513503       1.11141297
Ar      14.64684989       5.35056224      24.84252559       1.34597525      -0.09682594      -0.07409580      -0.70397992
Ar      29.81783064      28.13076319      20.31953420       1.34597525       1.03871941       2.31595762      -2.08799350
Ar      30.99123022      26.53125797      32.52769279       1.34597525       2.56106818      -0.26752254      -0.10101528
Ar      19.30136092      32.75024760      33.33551674      -1.34597525      -0.46689443       1.61892146      -2.07539583
Ar      13.13004282       3.17263852      27.86352530      -1.34597525       1.48153595       0.51147099       1.43351016
Ar      27.77498413      12.87327008      10.82991152      -1.34597525      -0.28923632      -0.44517396       0.45529520
Ar      19.47522602      16.69245301       1.57637774      -1.34597525       0.55574894       0.01187067       0.51335532
Ar      28.39336305       0.20827690      17.70954206       1.34597525       0.45452442       1.85011131       0.77269152
Ar       6.78800359      18.49046592       3.60513508       1.34597525       1.30504705      -0.47813206      -1.35782151
Ar      25.93265686       0.17673381      20.38005028       1.34597525       0.35981817       1.43752948       4.21815581
Ar      15.73924860      26.37798275      25.57179519      -1.34597525       0.67794169      -2.40139052       1.71449386
Ar      14.13825699      18.86863210      33.36573335      -1.34597525      -0.97924215       0.38050199       1.61940044
Ar      35.15972132      31.67666476       2.35941990      -1.34597525      -0.68035554      -0.10529557       1.60761551
Ar      25.62372969      30.92661899       3.31137271      -1.34597525      -0.67679840       3.82368994      -1.13641231
Ar      17.53033328      31.97278412      10.12543056       1.34597525      -0.30509199      -2.75517357       2.00643451
Ar       5.62930659       9.22286678      21.74726106       1.34597525       0.36295954      -0.66791551      -0.46451536
Ar       0.36275941       6.91809932       2.37785211       1.34597525       2.88272871       2.73082935       0.49178742
Ar       3.35744037      26.30084213       6.49579830      -1.34597525      -0.89693616       1.44865761       0.48105897
Ar      27.26538003      33.21155781      25.47096690       1.34597525       1.48542069       0.93653506      -0.08337788
Ar       1.31307829      30.11014716       8.19034104      -1.34597525       0.43457670       1.35529331       1.15991377
Ar      13.48588322       1.84692822       2.36328406      -1.34597525       1.67062747       1.57694994       1.26598123
Ar      18.97532395      24.79873638      31.27919608       1.34597525      -1.54053512       0.10521769       0.69606818
Ar      34.62297111      13.50450749       5.43321267      -1.34597525       3.02480111       0.75850876      -2.11036868
Ar      27.73132496      23.30749121      33.63411301       1.34597525       0.77337113      -1.69733640      -2.67602030
Ar      13.70831777      30.88968549      31.46966829       1.34597525       1.17617650      -2.16470435       0.28301736
Ar      25.07202594      11.40501134      30.81065122       1.34597525       2.74779718       2.23938389       0.30674043
Ar      12.19428903      10.60943267      14.04286666      -1.34597525       0.63734658       0.82781597      -0.74536698
Ar       4.25354788      13.49338091      24.12401940      -1.34597525       0.78845592      -2.40596217       0.91350330
Ar      30.89362521       4.48214879       9.54491543       1.34597525      -1.97730656       0.49561712      -1.55739019
Ar      31.14955433      30.17193154      22.61439696      -1.34597525       0.30304973       0.33051279       1.70350255
Ar       9.08572055      28.97786821       0.46096527       1.34597525      -1.45805277      -3.61305401       3.43883458
Ar       2.40536982      14.69258367      14.08170268       1.34597525       2.13887526      -0.59443920      -0.10082078
Ar       9.30547752      10.39085174       1.25123330       1.34597525      -0.58029707       1.67355364      -2.02009708
Ar      35.01026356      23.04084003      22.61838351      -1.34597525       0.67290494      -2.15577384       1.21549829
Ar      17.77430168      33.46661346       1.00020398       1.34597525      -0.64440869       1.07434948      -3.08677785
Ar      23.04834372       4.58648493      15.96351581      -1.34597525      -0.62668825       2.65167382       3.00676898
Ar      30.10722842       0.00259519       6.77867035       1.34597525      -0.45210606      -1.17117595      -0.93271884
Ar       8.53901284      18.43584508      16.80116410      -1.34597525       0.60822105       3.57334883       2.18079341
Ar      17.90537863       2.69468318      12.65262534      -1.34597525       1.37753798      -0.13846382      -2.49050375
Ar      33.89207387       9.42595864       3.38125266      -1.34597525       3.10658459       1.37014694       1.76079965
Ar      35.24412534      34.79059674      20.82508429      -1.34597525       2.75238677       2.00093695      -1.72700003
Ar      12.65786029      28.18167090      28.96054029       1.34597525       0.33821182       2.82320315      -3.55308366
Ar      33.82321493      17.87478547       5.53377458      -1.34597525       1.17197158      -0.27008411      -0.15526431
Ar      19.57662764      25.11953022       5.00966991      -1.34597525       2.20371465       1.27256954      -0.15293756
Ar      22.26364477      15.03024348       7.18256989       1.34597525       0.14881270       0.11370617      -2.88066521
Ar      12.26909809       8.51917958       1.76788277      -1.34597525       0.29297635      -3.54760583      -1.16382206
Ar      13.46992905      16.88084325       5.72185164       1.34597525      -0.94371383      -3.58625598       1.64018777
Ar       2.25189262      31.42552854      35.19807083       1.34597525      -1.64668791      -1.06253833       3.07395964
Ar      12.59586511       7.35538930      18.01891733       1.34597525       0.05038429      -1.36258948       0.58216662
Ar      34.12543172      20.52665451      19.27610961       1.34597525      -2.25498355       0.70018787       2.04059466
Ar      22.21266037      27.69436262      23.86943825       1.34597525      -1.53984994       0.94596415       1.19002169
Ar      20.65956868      19.34335034      26.39143799      -1.34597525       0.69070576       1.65609088      -2.17424893
Ar      15.25293568       1.83369665      10.95855094       1.34597525       0.95711348      -0.02043380       1.59553856
Ar      27.21986210       1.53897841      34.90323926      -1.34597525       0.14595064       2.07200480       0.29845950
Ar       3.59970502      15.33331436      32.39338660      -1.34597525       2.66632973      -0.65962440       0.67540737
Ar       1.21966323      34.21939839      11.57487859      -1.34597525       0.81056383      -0.32647937      -0.05250909
Ar      12.54204664      11.57834652       3.33612118       1.34597525       0.92208043       1.75324364       0.90488145
Ar      10.03305121      24.05327309      18.73551466       1.34597525       1.11048684      -2.39500306       0.09382241
Ar      34.47980138      18.95156028      29.30615956      -1.34597525      -0.27323421       1.66212958       2.00893288
Ar       5.08455938       5.58061581       3.52899803       1.34597525       0.60341788      -1.61426341       1.55992217
Ar      12.30843333      10.42287478      27.67144814       1.34597525       1.56393115      -0.53181606       2.03048498
Ar      32.65559785      16.31280071      16.16729501       1.34597525      -1.81993489       3.85632947      -1.78058191
Ar      21.10475755      34.11364886      19.65739941      -1.34597525      -2.43839241       0.13755831      -0.50998452
Ar      10.10277739       2.49881154      17.33409961      -1.34597525      -1.00339740       0.89418354       2.26499822
Ar      22.99154387      14.09206422      31.05613213      -1.34597525       0.76844789       3.69917546      -0.49647117
Ar       7.57066462      20.36897803      34.51084802       1.34597525      -3.37687273       1.69132903      -0.74537916
Ar       8.52046024       4.72460317       2.47295874      -1.34597525       0.96302308       2.86069269       3.11542094
Ar      18.52216370      10.24021301      22.13497324       1.34597525       0.39068680       1.02061687      -0.33663731
Ar      19.01879641      25.30393849      13.77285705      -1.34597525      -1.63571390      -0.64535510       1.17719823
Ar      27.46263968      31.33714827      22.59877475      -1.34597525      -1.54112833       0.10020185      -2.95206771
Ar      10.79995453       2.79556553       7.19093160      -1.34597525      -0.33625419       3.92615015      -0.46353893
Ar      25.56790558       2.98041165      18.93326244      -1.34597525      -1.59173723      -1.64881680       1.28195804
Ar      21.90513224      24.63767455      20.51025060       1.34597525      -5.38210336       1.04910356       0.67355070
Ar      20.38629886      18.95496888       4.03184282       1.34597525       4.14785335       0.39646748       0.33846730
Ar      25.45376353      23.19443307      21.68154318       1.34597525      -1.17730595      -2.07558969      -0.00927452
Ar      10.77506834      21.52660533      12.73951001       1.34597525       1.83169376       1.59092235      -0.36833692
Ar      28.40103335      18.05522045      18.18705830       1.34597525      -1.27506184      -0.26455888      -0.50307932
Ar       6.77507116      25.44821299       2.66089022      -1.34597525       1.63815236      -1.17386073       1.91067863
Ar       6.17261032      31.76650597      32.92095137       1.34597525       1.50246416       1.48569953      -1.15881110
Ar       4.09885740       7.16944983       7.76380636       1.34597525      -1.96618306       0.55852365       1.93668108
Ar      15.38877724      31.27008873      24.57850931      -1.34597525      -2.60574142      -0.71248966      -0.32005111
Ar       1.94400215      20.73626132      20.34120840      -1.34597525       2.99210245       0.83838667      -2.16356956
Ar      15.45989272      21.09037620      18.38725183       1.34597525      -2.69299462       2.89743315      -0.65793690
Ar      20.22264292      28.04761698       7.61263809      -1.34597525       0.60818463      -0.58456123       0.59153849
Ar      17.77468078       7.84856717      19.23049746       1.34597525       1.37637737      -0.49698505      -1.16634966
Ar      11.85093549      11.79172720      35.16495145      -1.34597525      -1.93930162       0.60136652       1.53946362
Ar       0.38414939       7.01737948       9.65801479       1.34597525      -0.02046904       0.74276691      -0.98645641
Ar      31.69961270      24.84661735      28.80051059       1.34597525       1.17948522      -1.48231659       1.81494326
Ar      21.39017787       2.02377517      17.62366912       1.34597525      -0.23792060       2.12414554       0.57399943
Ar       1.39751994      23.17697253      16.60367870       1.34597525       1.43041937      -0.92674689      -2.04131626
Ar      30.07658796      18.10067585      15.16090588      -1.34597525      -0.07958761      -0.20344451      -0.47113988
Ar      34.32591180       0.68696937      26.69219434       1.34597525      -3.23821381      -0.34092574      -1.54003330
Ar       5.32908787      20.06717691      25.99188686       1.34597525      -2.20795241       0.14182679      -0.87093642
Ar       0.24380610      18.35084356      22.25781200       1.34597525      -3.71120387      -0.26610073      -2.80183358
Ar      20.48828956      24.02644180      16.41041405       1.34597525       1.52670327       1.38685553      -2.57578423
Ar       2.80745962      23.60400930       2.72155816      -1.34597525      -2.01915411      -2.09035829       0.23624205
Ar      10.88949283      34.64057591       4.72057329      -1.34597525       1.35443828      -2.88842725       2.53918090
Ar      21.79243283      23.05766854      30.71020184      -1.34597525       1.89268267      -0.31752289      -0.34323909
Ar       8.84770645       8.45779803      19.55054006       1.34597525      -0.80185662       1.33337020       2.10988614
Ar       7.79164406       0.75872304       3.64904517      -1.34597525       0.06904018       0.86751032      -0.42243803
Ar       4.57176249      28.33817680      21.12186558       1.34597525      -2.41104240      -1.63816725       0.54439130
Ar      14.90120928      21.18866359      23.37354112      -1.34597525      -0.19012248       0.17856859       0.74696193
Ar      16.62126970      34.83022591      31.84559672       1.34597525       1.03305249       2.36539270      -1.19374087
Ar      14.06546417      22.28395657      33.23965592       1.34597525       0.19380438      -2.12178296      -0.33884818
Ar       9.41108298      20.75285136       1.93664688      -1.34597525      -0.30220028      -0.66732828       1.48788761
Ar      12.36638106      13.44524933       6.47108461      -1.34597525       0.27526387      -0.70359771      -0.16633117
Ar      30.49574185      28.90840685      25.97394024       1.34597525       0.39873765      -1.04589908       1.56695160
Ar      19.70133401      30.11018517      23.17599873      -1.34597525      -2.10323483       0.64314245      -2.46792204
Ar      22.28941387       9.46297315      30.21728410      -1.34597525      -1.82292562       0.37807305       1.11968915
Ar       2.35202405      13.45398019       2.26657694      -1.34597525       0.34640715       0.73939522       0.16891792
Ar       9.51558653       6.10473958      17.44132079      -1.34597525       0.15232025      -0.11922702       0.43293731
Ar      17.69903688       7.70298399      24.16555578      -1.34597525      -5.68666554      -1.26082461      -0.45562072
Ar       2.85195361      30.21028761      18.48820515      -1.34597525       1.93999683      -1.74684811       1.57347029
Ar      12.72472912      21.26290489      10.16334432      -1.34597525       4.15157905      -0.64273433      -0.09143764
Ar      22.01892968      30.36124336       9.45781152       1.34597525       0.22152138      -1.21640277      -2.30450480
Ar       8.89665390      19.01893772      11.62661551      -1.34597525       3.38436498       1.90250213       0.99120516
Ar      35.03707686      32.71093103      32.24242153       1.34597525       0.06568594       0.35317855      -1.15213457
Ar      14.55072263      32.03738569      18.61013535       1.34597525      -1.05494506       2.25373879       0.38824346
Ar      32.40100183       7.33841431      22.45423101       1.34597525      -0.72451830      -2.02517414      -1.45048404
Ar       2.76928550      31.06103416      26.21011664       1.34597525      -0.48310094       0.08900893       1.61546907
Ar      31.11253784      32.61166490      33.12034810      -1.34597525      -0.09021685      -2.25497189      -0.86910191
Ar      22.16019102      25.91623674      10.81397680      -1.34597525      -1.51558997       1.77534026      -0.56564503
Ar      32.16508532      17.38541604       8.48483989       1.34597525       1.57552568      -0.33388229       0.11043425
Ar      19.45357042      26.50881612      35.02692750       1.34597525      -0.24706737      -2.90390621      -0.61571028
Ar       0.36813546      11.33674520      19.25609737      -1.34597525      -1.40937840       0.18409535      -0.04047220
Ar       3.83745004      19.54533432       7.30929511       1.34597525      -0.60148477      -1.68456688       2.02652986
Ar       8.55461764      30.67439811       8.83478270       1.34597525       0.69682609      -0.54200492      -0.79543277
Ar      10.62622886      26.82781030      17.14775715      -1.34597525       0.00212806      -1.39798131       0.22742324
Ar       0.58018122      16.91548074      32.79389754       1.34597525      -1.93719045      -0.47379854       0.50279667
Ar      19.39304802       3.52268365       0.74811850       1.34597525       0.27659864       0.02193312      -1.94118119
Ar      17.31945589      26.40790221       7.08116799       1.34597525       3.93477590       0.31060310      -0.86202970
Ar      18.53872527      27.80254435      29.95858082      -1.34597525       0.92009184      -0.58884799       1.47004619
Ar      17.75182745      23.25466378      21.95234847       1.34597525       0.10156783       2.56623411       1.51560740
Ar      13.57699549       0.92219756      23.63001831      -1.34597525       2.37964237       0.40819488      -0.59208838
Ar      14.88845016      27.66123818      31.41412087      -1.34597525       0.41918093      -2.08671895       4.33373112
Ar      18.59232057       0.84982472      34.32681461      -1.34597525      -0.89337810       0.75462501       2.47754901
Ar      15.57762952      13.10291085       8.98479827      -1.34597525       1.42207064       1.73911531       2.18739934
Ar      17.72806458      29.79766395      32.84365328       1.34597525      -0.89835868      -0.10932523       0.02380958
Ar       5.65396020      24.67934292      31.47757973      -1.34597525       0.82848216      -3.02042425      -0.79069777
Ar      17.38971439       1.26362595      29.09512803      -1.34597525      -0.31900293      -2.74409725      -0.29613304
Ar      21.82743598       8.80253935       4.54129607       1.34597525      -0.58926655      -0.08869788      -1.49128900
Ar      32.00898921      21.77635994      27.03932598      -1.34597525       1.29131974      -0.73011266      -1.58771568
Ar      34.55023433       3.76525827      20.36755490      -1.34597525      -3.22928901       1.33631902      -1.56387505
Ar      35.30275997      28.96624667      19.18295565       1.34597525      -1.32654435       1.48434459       2.33531874
Ar       4.13877290      29.58811959       6.76322248       1.34597525       1.91509008      -0.24245634      -2.07788779
Ar       2.12733283      33.90385935      15.50891396      -1.34597525      -1.03679510       1.62788847       3.14442162
Ar      26.00284105      32.65058090      13.06083414       1.34597525      -1.96123180       0.08075831      -0.45065831
Ar      24.07621021      27.59278625      34.48803447       1.34597525      -1.62002578       1.16671219      -1.56125139
Ar       3.90192336      18.61030442      28.82925734      -1.34597525       2.54916143       0.70661459      -3.12354573
Ar      23.78023548       7.00495141      13.21253830      -1.34597525       2.78136904      -0.18620159       2.56995059
Ar      27.52619384      31.94229272      10.28388458      -1.34597525       1.52437754       0.25878078       2.38188033
Ar       6.47621014      31.44018167       5.43818843      -1.34597525      -1.86673306       0.98432930      -0.98396472
Ar      24.59208262      24.15852371       5.44419861      -1.34597525       0.43382672       2.05507780       1.77164896
Ar       5.96770522       2.12674955      12.23202239      -1.34597525      -1.10875277      -1.53170578       1.22340498
Ar      32.91455099      19.17057215      24.22978065      -1.34597525      -0.74940635      -1.01950107       0.01344321
Ar      12.71876143      24.74672539      11.16184757       1.34597525      -1.16382619      -1.89457276       1.44850218
Ar      31.98598703      22.57567298      23.87757632       1.34597525       1.23898162       2.10087347       0.23044463
Ar      22.24604377      10.97359078      27.17477794       1.34597525       1.28464915       1.64514116       0.40710696
Ar      23.96871729      20.35088209      25.39764992       1.34597525       0.41182165      -2.71973740      -3.26007822
Ar       1.50009200       5.72302456      21.52470566       1.34597525       2.22242088      -1.76191979       0.26300639
Ar      31.17596869       9.53279664      12.97503524      -1.34597525      -3.16052046      -0.71541354       0.73294514
Ar       7.52748726      20.63459697      31.31861137      -1.34597525      -1.51743837      -0.25381672       0.18080580
Ar       5.72338934      24.94492205       8.98707677       1.34597525      -0.55271762       1.07314964      -4.61233244
Ar       1.76290616       3.83336088       9.18425683      -1.34597525       2.07296622      -1.31868316      -0.01836281
Ar      28.02333739       8.42130240      35.29957108       1.34597525       0.66734506       1.39667108      -1.96657240
Ar       3.90248011      32.34504341       9.36675554      -1.34597525       0.04518012      -2.35647868      -0.43305257
Ar       5.21939492       2.06719062      26.72519477       1.34597525       0.38331478      -1.41552836      -0.90649406
Ar       8.68492807      12.66290710      19.20564716       1.34597525      -1.66231110       1.83386199       0.04678656
Ar      27.14622420      13.36574995      33.73882366       1.34597525       1.00779486      -1.90663913       2.36787983
Ar      33.38892013      15.35061106      30.63736151      -1.34597525       1.29714034       1.01138700      -2.48529205
Ar      17.06313707      22.55312685      14.99850135       1.34597525      -2.01544321      -1.99147536      -3.04483782
Ar      16.58994306      30.73242453      20.93240329      -1.34597525       1.02223396       0.55546371       0.50003214
Ar       8.31830798      11.44168159      32.50726825      -1.34597525       0.30699171      -0.97322947       2.49982081
Ar       4.95001784      25.89659751      34.94289084       1.34597525      -1.00600900       0.62610171       1.03049595
Ar      22.18043736      18.91944126      20.98483796      -1.34597525       1.35640938      -0.97780222      -1.15059605
Ar       6.23114630      11.98215364      12.29889054      -1.34597525      -2.51549224      -1.72860065       2.20313551
Ar      34.42659774      26.73786424      21.67274833       1.34597525       3.38068560      -1.83600351       1.58146761
Ar      13.53536959      14.74025315      34.54203613       1.34597525       1.11461884       0.49123706      -0.50324683
Ar      24.72675650      10.14768844      14.78431818       1.34597525      -4.08264480      -2.64368853      -2.50549468
Ar      32.63804232      26.30831705       0.55849873      -1.34597525      -0.94382612       2.53701642      -1.44577520
Ar       7.32335990      22.07157994      28.30497153       1.34597525      -0.04418545       1.33939696       1.28141455
Ar      11.79522123      32.22507021       8.74530579      -1.34597525      -0.67116674       0.70217846      -0.39104359
Ar      10.53739117      18.99561606       7.51045055      -1.34597525       0.10644887       1.75938423       3.18713196
Ar      28.69708828       6.03378962      11.59231090      -1.34597525      -1.00465226      -0.41704714       1.33878775
Ar      33.00439945      29.53191034       8.49938168      -1.34597525       0.23564644      -2.23292113       0.92641776
Ar      13.03627393      22.63304289       3.42641253       1.34597525      -2.31759501       1.88765058       0.15964323
Ar       0.64389182       3.88459001      13.96884440       1.34597525       0.18669720      -0.40100433      -1.03253088
Ar       3.08248159       6.85824731      28.61789145      -1.34597525       0.39290541      -1.49794024       1.07843075
Ar       1.98433563      32.67219338      22.44099529       1.34597525       0.70977057       0.93547976      -0.67539686
Ar      28.27051988      25.05799149      23.38531484       1.34597525      -0.35487028       0.37848412       2.01200523
Ar      13.89330497      22.10300535      13.89068686      -1.34597525      -0.94769186       0.30718124      -1.26741664
Ar      13.65035221       4.23806271      17.10939498      -1.34597525       2.64304636      -0.52754342       2.27446463
Ar      29.41743367      15.16988481      27.05485620      -1.34597525       1.19638801       1.29890023      -1.74526509
Ar      26.77847368      20.21892832      22.44764416      -1.34597525      -0.69051932      -1.04265534       0.20941208
Ar      24.50739891      28.06638004      28.07035157      -1.34597525       0.77163608      -2.26578925       0.88212972
Ar       9.02204019      15.43300407       9.40846636      -1.34597525       0.29571430      -1.29751274      -0.40371831
Ar      14.69922250       4.82823758      21.46222511      -1.34597525      -1.18796387       1.64503304       2.51846365
Ar      12.55833187      20.21594914       0.72194493       1.34597525       1.85621989      -2.56301009      -0.95563454
Ar      21.22658725      34.19957998      28.21980022      -1.34597525       0.68641905      -0.54621381       0.25144500
Ar      23.03746542      25.34412397       1.54352222      -1.34597525      -2.23315748      -3.26310713      -0.58584655
Ar      32.52882367      29.28987618      28.43548647      -1.34597525       2.07785814      -2.48466269       1.38966807
Ar      16.72759710      16.92661484      12.37719336      -1.34597525      -0.09724517      -0.13132416      -0.67738092
Ar      32.84084334       9.07847678      26.65306945       1.34597525       1.95272770       0.64405017       1.63731168
Ar       7.95011294      10.37094214      27.88255887       1.34597525       0.18116653      -0.68750573      -1.36302133
Ar      12.66117470      15.63181429      31.37312193      -1.34597525       0.02815229      -0.25515664       0.01651013
Ar       3.88149896      26.89097814       3.14137201       1.34597525       0.93482222       0.28493418       1.23302597
Ar      16.99102494      16.02285069       7.87420175       1.34597525      -0.83149672      -0.37651567       0.51223858
Ar      23.38087815       2.03918125       0.19756714       1.34597525      -2.58143233       3.23222712      -0.50989164
Ar      10.76716396      34.96835786      12.92285858      -1.34597525       0.77390280      -1.48539575      -2.46636760
Ar       4.16366392       6.62262759      25.37980015       1.34597525       0.78106712      -1.22298531      -1.46655889
Ar      20.24908863       4.70242297      26.16849955       1.34597525      -0.16827260       0.55165772      -1.84226971
Ar      24.08031274      10.67653300      11.52997228      -1.34597525      -0.41976985       1.84683606       0.33094772
Ar       2.72777284      12.85919270      17.40190892       1.34597525      -0.20716488       0.67770579       1.41855511
Ar      22.90765651       9.28093401      34.51928863      -1.34597525       3.16268540       0.77780562       2.79256071
Ar      15.16868808      13.17933179      14.20944978      -1.34597525      -0.31048007      -1.86870724      -0.04844274
Ar      26.32204368      16.77215670      20.47387104      -1.34597525       1.42572155       0.98247417      -0.02236933
Ar       1.70995839      19.59136569       9.97458171      -1.34597525      -1.93618184      -1.06091924      -0.29911480
Ar      26.62824565       6.66928303      14.81813229       1.34597525       1.06429752      -2.17645049       2.12882565
Ar      10.75679433      35.09255337       1.45589263       1.34597525       2.63580065      -3.27542675      -0.06811485
Ar      25.43221646      14.97543999       8.07530728      -1.34597525      -0.87552964      -0.13407599      -1.86789395
Ar       6.77198782      27.58219702       6.99412470      -1.34597525      -0.66271441      -0.92935577      -0.79758521
Ar      30.65256380      14.63316550       9.42691232      -1.34597525      -0.63541552       0.05318870      -0.33784958
Ar      29.72936624      22.95089954      21.37464754      -1.34597525       0.69114713       1.33616832      -0.07446125
Ar      16.72766562       7.87077405      13.47272378       1.34597525       0.84436076      -0.07147735       0.23715007
Ar       4.90519579      11.57927242      28.45663249      -1.34597525       0.24783014       1.38199692       0.87162315
Ar      24.79649020      28.31176072       9.16201429      -1.34597525       4.14087811       1.63755418       0.76099620
Ar       8.57997540      30.81030916      27.29031771       1.34597525       2.85882868       2.97873547      -0.20561416
Ar       9.71655081      31.86487535       5.86367373       1.34597525      -1.12770997       1.42869547      -1.87988892
Ar      11.70284070      31.53539543      28.31066594      -1.34597525      -1.70185018      -1.22624129       1.80504525
Ar      31.06543478      19.95962817      30.55486334      -1.34597525       0.44469132       0.65665523       0.93690658
Ar      23.52819509      20.28205885       5.04817290      -1.34597525      -0.25016946      -0.54923254      -0.02034694
Ar      21.83321648       2.48169430      32.58181866      -1.34597525      -1.11373639      -1.86098133       1.98772976
Ar      11.61162345      24.96130828       5.18450848      -1.34597525      -0.05355739       0.95431258       0.60169402
Ar      34.01455510      31.51474793      17.38862013      -1.34597525       1.54639975      -1.38303689      -1.03528775
Ar      14.89229659      11.71855028      33.50621307      -1.34597525       1.37469711      -0.64417021       2.87168767
Ar       6.40509813       7.42197131      10.63697760      -1.34597525       0.70356302      -0.20689884       2.05496399
Ar      25.33733061      17.53832650      29.71824314       1.34597525       0.72489177      -1.72024279      -1.17089122
Ar       2.91621224       2.36598879      34.83403938       1.34597525      -0.67669017       0.12801738       1.46258632
Ar      11.78184998      22.12539392       6.98322929       1.34597525       3.14363114       0.69966395      -0.82170485
Ar      13.92513080      21.15421478      27.36924444       1.34597525      -0.89889570       0.85640168       0.06255553
Ar      27.74414753      28.73683677      10.80910687       1.34597525       2.38844839      -2.30513925      -0.79365120
Ar      32.53250963      26.98084137      18.90445576      -1.34597525       0.87846354      -2.91859927      -1.75426232
Ar       2.41497876      21.31597232      35.29092081       1.34597525       1.31092559      -0.52963827      -2.66476662
Ar      21.30251467      11.67365830      20.75541053      -1.34597525       0.14800951      -1.36418614      -0.22814204
Ar      26.24292010      29.35491147      13.82558002      -1.34597525       3.84664007      -0.76721198      -1.37914208
Ar       1.88283534      29.29338419       4.28913368      -1.34597525       1.34270713      -2.00119023       1.53889295
Ar      13.94910954      24.51373941      23.21414314       1.34597525       0.74370055       1.22010396       0.40752323
Ar      16.39883207       5.97363202       7.50345212       1.34597525       1.06854585       0.30058319      -0.12253037
Ar      18.07126198       2.94937204      17.16536463      -1.34597525      -3.35042691       1.57480182       1.16064717
Ar       7.53550323      21.80867214      16.97424092      -1.34597525      -1.00757145       2.64746448       0.48003525
Ar      17.71618599      22.42617278       5.62582881       1.34597525      -0.54262408       0.48105771       1.10039085
Ar      28.88470015       7.52180754      27.23876040       1.34597525      -0.20891639      -1.73309485      -0.10368807
Ar       7.16675627      31.11709383      11.79707152      -1.34597525      -1.29898748      -0.46467430       0.59852272
Ar       1.93680356      13.12125691      34.31121063       1.34597525       0.54274876      -0.71453519      -1.34302969
Ar      26.14313710      13.91666828      17.41743449       1.34597525      -0.53217321      -0.04868011      -3.41385356
Ar      30.11821460      21.88719676      13.63989030      -1.34597525      -0.86919604      -2.21841349       0.45752943
Ar      26.55164494      22.43348662      18.54504066      -1.34597525      -0.70055720       0.06336878      -1.33408285
Ar      31.74714067      32.27789025       2.85272665       1.34597525       0.48785758       0.53473115      -0.01731244
Ar      24.36748242       0.75120629      30.09002659      -1.34597525       1.86114016      -0.88683720       0.42656898
Ar       8.80466245      13.92994440      34.98363928       1.34597525       1.50084334       2.54044634       0.39611639
Ar      28.00200522      20.83014243      15.94225410       1.34597525      -0.05006698      -0.92189255       2.50473228
Ar      10.79761081      30.21287209       3.11191670      -1.34597525      -2.95619498      -1.02526834       0.99021157
Ar       1.14044654      14.30694798      24.43763853       1.34597525      -0.00964605      -3.34266820      -1.04973404
Ar      27.31773941      17.80435925      12.89426235      -1.34597525       2.40524124      -1.59561511      -0.47178020
Ar      25.19204262       1.40172813       2.79972978      -1.34597525      -0.29158243       0.11350901       1.02138214
Ar      17.98600083      33.13138396       4.66621467      -1.34597525      -1.49395772      -0.59020037      -0.35970534
Ar      27.10272471       8.74183700      19.31706917       1.34597525      -0.15231482       0.81479118       1.80330190
Ar       6.51428984       6.58145513      28.58020953       1.34597525       1.93209621       0.26669440      -0.38227512
Ar      22.46147463       1.86411968      12.93512343      -1.34597525       3.04901591       0.15656612      -1.59687807
Ar      18.24900433       5.46034942      10.84150950       1.34597525       0.38267203       1.30834057      -1.54290964
Ar      19.44382833      13.87665325       8.83389573      -1.34597525      -3.51157336       0.69017687       0.42252596
Ar      19.36615086       5.27712797      29.53410605      -1.34597525      -2.28908314       0.74636795       0.60597875
Ar      25.78014293       3.72335945       4.97597310       1.34597525       0.31488355       0.46733223      -2.96213532
Ar       1.53364234       6.50994790      18.13806110      -1.34597525       0.38780872       3.65410499       2.83259013
Ar       0.61812072       8.95970469       6.78724498      -1.34597525       2.73574463       2.84008101       1.82921350
Ar      31.57845644      12.01930406      31.70390201       1.34597525       0.07804193      -0.46060136      -1.47746177
Ar       7.40138658      18.36267818       8.63999774       1.34597525       2.50635800      -0.20731941      -0.53205968
Ar      24.45258092      21.14008764      31.51961124       1.34597525       0.71952752       1.23321447       2.31219285
Ar      22.29921340      33.80545529      14.89544077       1.34597525       0.57477275      -1.18464938       0.69023359
Ar      11.80280884      17.64192230      10.21595969       1.34597525       2.17743036      -3.65790946       1.13848424
Ar      35.18442134       4.51859942      31.19343349      -1.34597525       1.31799004       1.22746732       0.05402999
Ar       1.97897695      23.13730524      10.83504270       1.34597525       0.21765959      -1.83937349       0.26941230
Ar      11.73825277       4.53962273       0.72354646       1.34597525      -0.24604474      -1.05868767       1.71282634
Ar       2.59143669       2.46284041       6.22740273       1.34597525       2.75695762      -3.00369768       1.35745253
Ar      20.84636969      28.36874806      26.85936300      -1.34597525      -0.45940879      -0.24753191      -0.09605350
Ar       2.53630214      10.82961334      25.02095905       1.34597525      -1.91626219      -1.64240654       3.21665727
Ar       5.05104296      13.84748063      19.47879356      -1.34597525       1.13718860       2.15194923      -0.88917804
Ar      17.01125567      16.79922625      25.51567173      -1.34597525      -0.66156918       1.61607600      -0.78918667
Ar       9.24611336      27.39354647      20.24717900       1.34597525      -1.80202093       4.42228850       3.54177867
Ar       8.58785054      21.31583622      20.78797851       1.34597525       2.08833349       2.27810821       2.38557135
Ar      28.87058930       4.68394705      25.50741105      -1.34597525      -0.47666824      -0.45701913       0.49019689
Ar      29.10667117       0.44180512      21.05375406      -1.34597525      -1.75649719       0.98670865      -4.02729048
Ar      30.26735558       9.15980754      24.54013821      -1.34597525      -0.95815834       0.42006002       0.76793776
Ar      26.44461697       3.73018523       8.75750312       1.34597525       1.09792796      -0.17639100       0.50879754
Ar      15.29751482      22.04051739       1.11671907      -1.34597525       0.56124930       1.31499120       3.87760037
Ar      29.35192107       1.55784393       9.82205704      -1.34597525       0.13806261      -0.60649218      -0.04338205
Ar      16.97151104      28.06158359      22.90399295       1.34597525       3.13706034       1.10991448       3.23695299
Ar       5.57825401      27.08643360      24.05861293      -1.34597525       0.33892236      -1.17056764      -0.76461863
Ar      28.32701999      18.58600544      28.57279630      -1.34597525       1.40081669       0.97900774       0.44384952
Ar      22.26038573      12.15756369       4.48048795      -1.34597525       2.24523039      -2.21072519       0.54770889
Ar      30.87009800      20.38733898      18.27997421      -1.34597525      -0.51410259      -0.51473049      -1.66098344
Ar      32.21946313      17.75571926      32.66476754       1.34597525       0.02838471       3.72847087       1.26655351
Ar      29.16455675      31.55466737      27.93367652      -1.34597525      -1.36681964      -0.78199968      -0.75260969
Ar      26.87587084      23.99977352      14.87508739      -1.34597525       1.93771240       0.85167208      -3.62466834
Ar       1.17296247      24.06875511       5.66222135       1.34597525       2.21094282       0.38944632       0.83284367
Ar      10.94960918      28.93925967       7.14283739      -1.34597525      -3.05294236       0.43839748      -1.16327486
Ar      31.55249338       9.60328029      16.30475656       1.34597525       1.30287834      -0.76521243       1.60319144
Ar       9.67765121      14.72147259       5.02095813       1.34597525      -0.88837593      -2.03853803      -1.60249743
Ar      26.28562297       3.98849313      27.74005587       1.34597525       0.29745658      -2.23139659       2.31085275
Ar      11.27468596      10.57032463      18.14445352      -1.34597525      -0.22530532      -1.67319792      -0.90646831
Ar      13.38101319      28.77841414      22.16790337       1.34597525      -1.59267225      -0.21559402      -2.61961199
Ar      34.50684749      12.10832603      26.56035376      -1.34597525      -1.65006464      -0.04280648      -1.79020740
Ar       1.05780492      21.41489837      32.28801642      -1.34597525      -1.28152663       1.26434337      -1.60587865
Ar      13.10958703       6.95963494      28.27054982       1.34597525       3.01660361      -0.18035254       2.32347532
Ar      12.78674145      29.29622819      19.08483975      -1.34597525       2.05537911       2.05456567      -0.38427863
Ar      16.53147548      21.58088406       9.72415722       1.34597525      -0.42792541       1.24066270      -2.51705306
Ar      32.67185435      23.94240157      20.31312594       1.34597525       1.28376103      -1.05593289       1.27040543
Ar      21.55267285      22.76388940      11.57479883       1.34597525      -1.04523356      -0.30067455      -0.17535788
Ar      25.09562272       0.00076081      23.53180346      -1.34597525       0.46137190      -0.20842537       1.49451117
Ar      15.71025217      18.82892013      28.96333898      -1.34597525       1.38525603       2.48634833      -0.27293870
Ar       9.06689878      26.72105566       9.12525528       1.34597525       0.20505176      -0.13257813      -0.31979563
Ar      24.99943548      19.71519444      19.58110359       1.34597525       0.75803607      -1.29602219      -2.57847942
Ar      33.93104602      17.17013013      19.33314941      -1.34597525       0.68058398      -1.72906311      -2.20853947
Ar      17.05198841      20.09584174      32.15953346       1.34597525      -2.00520166       0.80200674      -1.03544206
Ar      18.81622024      22.97896627      25.01759275      -1.34597525       2.90620539      -0.12197304      -0.95633706
Ar      19.31713936       8.15525726      31.09066367       1.34597525       1.15527322       0.57878965      -1.56402875
Ar      16.54460389      27.97507234       0.36740915      -1.34597525       0.69547370       2.94428033       1.47948463
Ar      28.37412015       3.86670071      15.47384105      -1.34597525      -0.40736575      -0.53990237      -4.27599008
Ar       1.95241508      26.34919825      23.11761495      -1.34597525       0.25457648      -0.46303511      -0.81622627
Ar      28.79501755       3.96316109      19.27634106       1.34597525      -0.71932749       2.79719771       0.04013242
Ar      26.54429345      25.77986623       7.79156940       1.34597525       1.38692355      -0.12043409       0.40471701
Ar      15.50978026      25.23479072      29.16637008       1.34597525       0.34508281      -0.09802741      -1.20362285
Ar      16.40370829       0.53176760      15.48942398       1.34597525      -1.02249943      -1.39170935       1.47887357
Ar      34.47266092      11.27048587       0.53959360       1.34597525      -0.48521472       1.01226684       0.26473199
Ar      21.46581116      34.48085237      31.53710536       1.34597525       2.10285085      -2.52259504       0.11874329
Ar      17.61711994       3.04819925       8.74236199      -1.34597525      -2.02570524       1.17725221       0.96439923
Ar      19.09514578      17.90821194      14.52664695       1.34597525      -3.09618882       0.13635695      -2.41313551
Ar       4.45522575      18.56548449      11.49363532       1.34597525      -0.29853931      -0.02314687      -2.14231621
Ar      18.87235914      32.84283363      16.92613074       1.34597525      -0.44582264       1.55567731       0.35720256
Ar      12.29888653      32.07384102      21.79913147      -1.34597525      -1.24345411      -0.77340979       0.23765534
Ar      28.42633078       3.91753422       1.68980216       1.34597525       0.30381428      -1.69567586       2.82554886
Ar      22.76977537      31.16923042      27.58605550       1.34597525      -1.03691151      -0.10082925       0.14490289
Ar       9.76140634      34.89554214      18.69635927       1.34597525      -0.75519258      -1.72952406      -1.52661388
Ar      20.17201208       7.82871151       0.57772669       1.34597525      -1.10849895       1.03938662       2.57581721
Ar      14.56927083       7.84288614       5.50997748      -1.34597525       0.61263905       1.15713198      -0.84961239
Ar      13.60011430      25.33960285      14.99398017      -1.34597525      -2.19097213       3.09205391      -0.25138817
Ar       3.84424847       4.09218326      18.97799461       1.34597525       0.41766373       2.15425417       3.67151845
Ar      21.73130464       2.64078840      29.10812387       1.34597525       1.78734530       0.70044321      -0.05549543
Ar      26.68565068      33.87855994       1.86777389       1.34597525      -1.63686295       0.42010287       0.57330417
Ar       5.06933509       0.75597639      29.99705263      -1.34597525       2.52684654      -0.77816136       1.56598853
Ar       6.26361448      10.39303703       9.39271094       1.34597525       0.18239316      -0.35265288      -0.33232380
Ar      33.33621271      23.03831304      17.22123923      -1.34597525       3.36658469      -1.47073127      -0.22239002
Ar      15.22927829      22.13163583      30.27494129      -1.34597525       1.11006193      -0.89583519      -2.76128301
Ar      18.91192773      21.78305343       2.67958194      -1.34597525      -0.96472971       1.40049788      -0.12178022
Ar       9.43580597       1.56156150      29.74801203      -1.34597525      -0.19652131      -0.50380795       1.83713337
Ar      12.11334985       5.40921427       3.96428824      -1.34597525      -1.81364534       1.48606714      -0.80521593
Ar      11.58494682       0.24365273       9.34295267       1.34597525      -3.09400429       0.81160223       3.73103609
Ar       0.01086681      29.85699393      22.56522110      -1.34597525       0.64719908       0.81098239      -3.05184185
Ar       6.40123937       2.32425078       1.20752399       1.34597525      -1.02176064       1.40261946       0.39305251
Ar      22.23660861      34.47684331       3.32204757      -1.34597525      -0.52903460      -0.20195664       0.02155300
Ar      27.00296818      27.98976447      32.67914232      -1.34597525       1.62439134       2.90165899       0.59477422
Ar      16.80192275      17.61012584       4.83653675      -1.34597525      -1.80391955      -0.45809561       1.55187330
Ar      28.15788005       9.59684147      14.93809383      -1.34597525       0.03177340       2.93040507      -0.08388712
Ar      21.71823066      28.52278215      30.10569448       1.34597525      -0.21993962       2.06198427       0.90296462
Ar      12.51881113       9.38516560      30.77334889      -1.34597525      -2.36121804      -0.11888083      -0.46988892
Ar      22.09216335      17.72818619      16.92543856       1.34597525       0.32156738       0.26557409       2.36649721
Ar      30.27956888       6.50417705      34.01167512      -1.34597525      -0.49224132      -0.70326404       0.95094358
Ar      10.35125013      17.53539870       1.89029196       1.34597525      -3.26510655      -1.32168947       1.53753053
Ar       8.58982384      23.98286418       7.17117890      -1.34597525      -0.89625830      -1.42815191      -4.42021830
Ar       2.03813948      34.57976721       5.61093116      -1.34597525      -3.64945818      -2.40641329       1.70569721
Ar      34.42192577      30.42169090       5.60905193       1.34597525       0.81776267       1.85678527      -0.35215379
Ar       0.48913811      11.54857072      11.44248166       1.34597525       1.20400672      -0.99563216      -0.28689445
Ar      20.66013307       2.53564788       9.92752611       1.34597525      -3.11090549       0.77574859      -1.04341032
Ar      24.42719448       5.93050944       6.85344797      -1.34597525      -0.45016135       0.64851220      -0.28941481
Ar      29.53030892      15.32668740      12.93761753       1.34597525      -1.08521422       1.73219700       1.20597819
Ar       9.21068751      27.27433456       4.69180642       1.34597525       0.59128165      -1.07699317      -0.24735488
Ar       3.85352859      16.60736149       8.70743685      -1.34597525       0.70561333      -2.09127680       2.04254392
Ar       8.98901561      11.38062318      13.95748595       1.34597525       1.34711445      -2.33190446      -1.09052265
Ar      21.30068533      29.12482968       0.20436366      -1.34597525      -2.32912374      -0.39711939      -0.63392869
Ar      32.90628946      10.63363762       6.44144290       1.34597525       0.55538677       0.11443763      -1.32238612
Ar      23.00587848      31.30400971      31.13868934      -1.34597525       0.24454716      -0.56225234      -0.61645302
Ar      35.10816718      27.83599092      29.77623888       1.34597525      -0.48182207       0.22824897      -0.28406705
Ar      29.34212843      27.42530779      29.37208290      -1.34597525      -0.09826834       2.89405156       0.85732053
Ar      17.09701021       4.28811223      26.67496908      -1.34597525       1.79452252      -2.07732545       0.40966547
Ar       5.62510770      32.56253478      26.42155826      -1.34597525       1.15258049      -0.28620379       1.54034845
Ar      23.24989105      20.04876248      28.65935213      -1.34597525       0.17179674       0.78591324       1.20668426
Ar      15.96480707      12.09101566       3.99672772      -1.34597525       0.59909878       1.27704122      -2.06395956
Ar       1.16603068       1.45539990      23.19450494       1.34597525       0.70757844       0.75636560       0.56124646
Ar      34.99613351      11.21812363      32.22690656      -1.34597525      -3.46819880      -1.49614904      -0.25553709
Ar      31.27614101      16.92189439      21.43823391       1.34597525      -0.95506703       0.59425564       0.54645154
Ar      21.90039944      20.13245593       8.00622205       1.34597525       1.82893711      -0.57403112       0.01610343
Ar      29.79859351      29.85060320      31.79448252       1.34597525       1.73268466      -4.40147261      -2.29123975
Ar       3.02296364      22.22167312      27.13160947      -1.34597525       1.13376157      -1.75002131      -0.54875148
Ar      25.96637508       6.64774516      25.55664579      -1.34597525       1.94086266      -0.43028266      -0.01027259
Ar       8.62096903      23.85014618       0.16353080       1.34597525       0.05606215       0.47953102      -1.68626206
Ar      24.46590795       6.98956423       1.34707560       1.34597525      -1.12463176       0.64205101      -0.25706028
Ar      12.69549422       5.43796667      31.24018765      -1.34597525       0.69389610       1.71684397       0.77888105
Ar      32.06452922      32.32983652      29.82605692       1.34597525       1.76961488       0.14474969       0.07085286
Ar      11.00903887      15.42240093      20.79985413       1.34597525      -1.14329966       1.93431427       0.66868788
Ar      17.36629736      15.13233789      20.51842403       1.34597525       0.82972938       0.70920876       2.68888604
Ar      10.35253968       8.05104945      15.07851627       1.34597525       0.81664887       1.15283575      -0.59753678
Ar      19.25882163      18.96333327      19.40003442       1.34597525       1.11726891       2.53127627       0.64941466
Ar      34.33067377      30.44653683      25.91176192       1.34597525      -0.79464882      -0.83507276       1.70518318
Ar       5.27194276      22.68066544      34.40408218      -1.34597525       1.40257767       1.56567189       1.16415652
Ar       7.45533329      34.30730583      12.49587478       1.34597525       0.18666282      -0.78186303      -0.87393041
Ar      22.53219653      31.37932663       2.17932691       1.34597525       0.49431969       0.94878884       1.12131050
Ar       4.34220919       4.79603641      10.95502654       1.34597525       0.70629470      -0.05470346      -0.76333358
Ar      33.48234348       9.61703622       9.87738057      -1.34597525       0.45184199      -1.27693252       0.22947940
Ar      32.85811003      19.34535656       2.49976954       1.34597525      -0.17406732       4.08856801      -4.37735433
Ar      15.80159517      29.60439019       7.41982637      -1.34597525      -0.86319338       2.57956281       0.82672214
Ar      23.11254530      35.11937929      10.37143031       1.34597525       2.39047557       0.30831421       0.25338174
Ar      30.00137774      27.20026836       9.02210086      -1.34597525       3.41870169      -0.22400684      -0.55609836
Ar       1.25916572      11.06861915       4.28414495       1.34597525      -0.89367645       2.02900248       0.91516645
Ar      21.25412335       7.99852120      25.78028246      -1.34597525      -0.19469126       2.32438343       0.41565101
Ar      30.61017639      16.87233947       1.61922862      -1.34597525      -2.58475755      -2.58412719      -1.34984433
Ar       6.69591602       1.79197778      32.61170470       1.34597525      -1.05930115       3.35863037      -1.69448194
Ar      34.70923969      34.91193232      17.40302666       1.34597525       0.79747671       1.17362501      -0.34195233
Ar      26.15279371      17.35184361      23.85666040       1.34597525      -1.22847773      -1.99479923      -1.13246128
Ar      23.44355285       3.87139300      26.10924305      -1.34597525      -0.83519865      -1.14371901      -1.77165913
Ar      31.34937477      14.47341492       5.64153083       1.34597525       2.83377732       0.46026336       0.77687999
Ar      14.83307430      23.62027579       6.34106195      -1.34597525      -0.07448236       3.92294944      -3.56766529
Ar      33.37199391       6.55138671      19.02240289       1.34597525       2.12956700      -1.61708600       0.60130856
Ar       8.46818922      34.28508560       9.36020847      -1.34597525       2.76265639       2.33448523      -1.13772552
Ar      22.21800390      20.52823559       1.56890026      -1.34597525      -0.12219840      -0.83564860       0.90238403
Ar       3.31653999      22.78426873       7.76902948      -1.34597525       1.59934418       0.60670770       1.02573229
Ar      27.71444848      25.26315307      10.88818031      -1.34597525      -0.59104145      -0.22777531       0.95957873
Ar      33.30388098      32.45229666      11.09600768      -1.34597525      -3.35675387      -0.77819393      -0.75443235
Ar      15.88660058       8.75295426       2.54000770       1.34597525      -1.46588277       0.59505733      -2.36138792
Ar      23.96246665      17.12247933      26.45276964      -1.34597525       2.03073726      -3.02600582      -3.40339464
Ar       0.64341703      34.83320517       2.59015583       1.34597525       0.08447173      -0.05310592       1.39740839
Ar       2.03190774       1.64705688      27.57189857      -1.34597525      -2.72527048       1.53368089       0.87397029
Ar       7.69846039       4.38275120      26.42708655      -1.34597525      -0.86473274       3.60983573       0.42184293
Ar      27.72969191       2.57057265      30.38192060      -1.34597525      -0.37452146      -2.06862790      -0.25035825
Ar      33.19259371      24.83181481       8.14066392      -1.34597525       1.88419919      -1.40950011       0.57180409
Ar       6.25838398      11.83600325       0.68894308      -1.34597525       0.06574222      -2.00473196       0.86778159
Ar       5.57361684      31.48506104      15.17800280      -1.34597525      -1.30510277      -1.52421302       2.16475920
Ar      10.04635978      30.96022506      19.52083816       1.34597525      -0.83872607       0.45384682       1.46644389
Ar      28.50286118      29.95869470      17.78941446      -1.34597525       0.60241922      -0.28577087       0.50505702
Ar      28.70195682      22.77791835       2.10241320       1.34597525       1.97175534      -1.34321192      -0.24696212
Ar      27.58571252      29.10551386       0.88102735       1.34597525      -1.65007073       2.56495048      -2.52234012
Ar      34.10894005      25.98978339       4.41306327      -1.34597525      -1.27857730       1.50456804       0.61168965
Ar      35.26876753      17.87811135      14.62161727      -1.34597525      -0.69525303      -3.67932415       1.49652406
Ar      24.96021758      34.07621382       5.17567771       1.34597525       0.14216294      -1.23551777      -0.78356596
Ar      28.43178723      12.00403926      27.92027543       1.34597525      -0.78003099       1.99367196       1.07741297
Ar      23.70060328      32.97196823       8.01159174      -1.34597525       0.30821152      -2.87785665      -1.90032494
Ar       5.52526306      15.98294707      13.16971467      -1.34597525      -0.12029518       1.97775896      -1.72908135
Ar       2.46859389      18.15012304      24.91924600      -1.34597525       1.14790642       0.20928564      -0.32335376
Ar       0.47337441      26.98558071       8.11045278       1.34597525       0.06357631      -0.87751873       0.70203531
Ar      12.81856200      18.44411140      20.09124028       1.34597525       0.57194536       1.97628652       1.28500119
Ar      10.53893070      27.40323218      24.97371898      -1.34597525      -1.35915186      -2.08720381      -0.04608821
Ar      30.50265670       6.77756746       7.08139661      -1.34597525       0.62060500      -3.55117278      -2.45639735
Ar      28.67063552      11.61783719      18.52392719      -1.34597525       3.50491670       0.42225893      -0.09736278
Ar      10.34209126      11.54681120      10.93780841      -1.34597525       1.29225952       2.29271762       0.32946258
Ar       4.78169362       7.64412537      17.00853362       1.34597525      -1.13038122       2.38223181      -1.48114240
Ar      12.15699368      30.45820105      25.12160659       1.34597525       2.85480718      -0.11557742      -0.09190125
Ar      23.06287103      27.66734507      19.11396500      -1.34597525       0.06922084       1.12260913      -0.59948846
Ar      29.44149060      32.50457827      20.02409817       1.34597525      -1.72721307      -1.14530804       1.02005297
Ar       9.17810841      32.38040102      16.65306872      -1.34597525      -1.25061058       0.51272690      -0.34109331
Ar      25.06337045      22.68584750       2.48465349       1.34597525       0.72629402      -0.96100252       0.92300771
Ar       8.30456261      29.57153595      14.73186053       1.34597525      -1.60099023       0.23479447      -0.10533458
Ar      30.20021863      23.47352446      31.53744575      -1.34597525       0.40436888       0.70743569      -0.03637283
Ar      29.36809403      12.61875844      15.45801571       1.34597525      -2.34857238      -3.32974286      -0.67414263
Ar      34.47702374      33.34716876      14.04070429       1.34597525       0.94755832      -0.57144224       1.34790932
Ar      24.17120257      30.44153771      24.54070693      -1.34597525       1.60916233       0.45206904      -1.61800971
Ar       6.04278224       9.93641949       4.64050115       1.34597525      -4.74168746      -0.65026629       2.02296093
Ar      30.64689434      10.88002604       3.68439920      -1.34597525       0.70397208       0.24105855       1.47175709
Ar       9.06554623      23.31285444       3.90780451       1.34597525       1.04571473      -2.22785472       0.94177700
Ar      29.68306068       1.77497842      24.05295495       1.34597525      -1.95006531       2.50569053       0.24325867
Ar      25.29154218       2.26778082      15.68151625       1.34597525       5.95845016       0.29338743       2.48372800
Ar      28.30678843      13.47455064       7.55056624       1.34597525       2.60923540       0.23010480       0.85166050
Ar       8.54419205      21.29191416      25.28638737      -1.34597525       1.86046911      -1.58184444       1.13471014
Ar      30.03331070      23.82903321       8.56153508       1.34597525       0.14551224      -0.46200232      -0.53926605
Ar      10.50161206      31.79511452      11.87250116       1.34597525      -1.48196867       2.87900028       1.32277170
Ar      20.30339082      15.94454577      25.16776404       1.34597525      -0.51955315      -0.01775878       0.84102803
Ar      33.73974209      11.59194530      14.34203604      -1.34597525      -0.31324371      -0.68164797      -2.79782608
Ar      18.33014307      10.80138358      26.88662015       1.34597525       1.36263861       0.67463453       2.73633470
Ar      30.99139769       0.95446805      31.63292043      -1.34597525      -1.79236221      -2.99647238      -0.66022327
Ar      18.99985522      25.69763902      10.20268242       1.34597525      -3.00500378      -1.15067574       0.96998125
Ar       8.20902949      14.93788281      26.74185293      -1.34597525       0.35925327       1.65297721       1.89974632
Ar       1.21678450      34.80841542      34.56187542      -1.34597525       0.37299768      -1.77953370      -2.39480703
Ar      19.14906631      10.10558513       2.85721957      -1.34597525      -0.83462645       0.30178101      -0.38486635
Ar      25.98582822      23.26011685      29.43329155      -1.34597525       0.61718105      -0.79039170       1.29100759
Ar       5.47546651      30.82696878       1.07980774      -1.34597525       2.43955956       0.44068149      -2.01187905
Ar      24.00492604       0.14704264      26.76285701       1.34597525      -1.10545994       1.23185396      -2.10522975
Ar       2.35186768      11.18868961      14.41487902      -1.34597525       0.42079593      -0.84717300      -2.30559187
Ar       9.90307123      23.62261290      15.12139710      -1.34597525      -3.18630090       1.45417184       1.59714673
Ar      30.44450255      25.87434648       2.95512849       1.34597525       0.47414736      -0.10679697      -1.68219711
Ar      17.73928891      29.69533831      17.19753229      -1.34597525      -0.61240226      -2.35420803       1.77575268
Ar      13.22552320      31.11875631       5.65207237       1.34597525       1.42342735      -0.32307411      -0.07898811
Ar       7.48646017      34.41441108      28.32235352       1.34597525       2.35671353       3.34806962       0.95616120
Ar      32.50954140       2.64534008       4.76807789       1.34597525       3.82406260       2.77035079      -2.54836121
Ar      32.76286177       7.07372408      31.72823613       1.34597525      -0.06976031       1.47456236      -1.22513641
Ar      26.03798085      15.58801687       0.87214202      -1.34597525      -2.50660809      -1.41386722       0.33648524
Ar       6.78658379       6.44795273      23.35945962      -1.34597525      -0.19741168       1.12017719      -5.14765353
Ar      10.44036538      26.25519529       1.81710297      -1.34597525      -2.84224148       0.14432311       0.47797804
Ar       6.28265387      30.81299251      29.67162947      -1.34597525       0.49065185       0.69086676      -2.29096168
Ar      30.20388147      14.69910650      33.36405937      -1.34597525       0.60387435       2.13037562      -3.20552173
Ar      21.43698290      22.75422736      27.20949399       1.34597525      -0.74961323      -0.89495615       2.34410641
Ar      18.77506705      33.03793623      21.83724107       1.34597525       1.46514128      -1.17206984      -1.37646104
Ar      15.41469048      30.00565567      28.52475431      -1.34597525      -0.97285567      -1.58457156       0.27893289
Ar      17.70160490       8.73839004      33.89953811      -1.34597525      -0.20616415      -2.13206120       0.81199529
Ar      12.05769422      25.94342635      20.96021058      -1.34597525      -4.43592685      -1.36434420      -0.30156160
Ar      33.70833496       6.72364724      15.75056508      -1.34597525      -2.06329124      -1.82069864       2.05294786
Ar      23.03010870      31.89018132      18.36390966       1.34597525       0.64077360      -1.52605111       2.58580290
Ar       4.42921549      28.45503232      16.24240256       1.34597525       1.17789293       0.72079643      -2.43358667
Ar      20.14946403      18.65163183      32.26826155      -1.34597525       2.05093821      -2.86597532       0.70970555
Ar      30.56508820      31.60369500       9.43862831       1.34597525       0.19517684      -1.16706238       2.48812392
Ar      28.07754424       7.19160373      31.31162896       1.34597525      -1.95767657       0.48765609       1.05039521
Ar      31.10193429      30.70213043      15.44014589       1.34597525      -3.20779661      -0.34962239      -0.43347834
Ar       1.31408229      18.19972132       0.68292015      -1.34597525      -0.27204374      -0.71658281      -0.30587899
Ar      11.65840291      20.53044378      24.41301647       1.34597525       2.05757570       1.45617725       1.85040446
Ar      29.01371841      21.04854610      24.90824257       1.34597525      -2.89113991       0.19863705       0.02264938
Ar      31.43313633      27.21755143      14.12814209      -1.34597525      -0.89186282      -1.66896646       0.59405244
Ar       6.50109509       8.95734599      34.27965154       1.34597525       0.12933782      -0.88026578      -1.47699522
Ar       8.14550920       5.23059476      33.62165539       1.34597525       0.15413967      -1.64438079       1.68437722
Ar      18.68888369      18.15556500      22.57034986      -1.34597525      -2.32529944      -2.31262722      -0.69706477
Ar       5.56229873       4.72043396      31.37732408      -1.34597525      -1.46810444      -2.17095821       1.10941091
Ar      13.90745164      32.76525416       2.80631210      -1.34597525       0.36840316       2.01221397       1.93686151
Ar       0.47182294       9.35909517      16.63939709       1.34597525      -0.91967781       5.07443655      -1.68604727
Ar       7.52362960       8.27128229       6.99335112      -1.34597525      -0.62270022      -0.16254573      -1.04154530
Ar      13.91292442      29.89865516      10.13735867       1.34597525       1.65693730      -4.03210365      -1.42751769
Ar      27.79843436      13.52561055       4.30162863      -1.34597525      -3.20174639      -0.56864853      -0.48248083
Ar      15.24880821      18.47835803       9.18304238      -1.34597525      -1.58655271      -0.16604343      -0.66900990
Ar      35.14999391      14.36878840      17.09417720      -1.34597525      -1.31400005       0.92400425       0.46635304
Ar      15.31757637      17.90549895      22.94084039       1.34597525       2.33445193      -1.04928971      -0.03560575
Ar       6.85619071      26.73606490      12.15719641      -1.34597525       1.87180785      -0.60000505      -1.34121214
Ar       0.93510474      16.04864618       7.02974492       1.34597525       2.99005464       0.18067211      -0.17158634
Ar      30.67066365      32.12003903       6.05055965      -1.34597525      -4.29322550      -4.11729808      -1.65453096
Ar       6.22613733      34.63558214      34.97830159      -1.34597525      -1.88743674       0.36819315       1.60408838
Ar      25.48234930       6.04652400      21.08684545      -1.34597525      -0.76253616      -1.22576435       0.26782908
Ar      19.08456677      12.71979169       5.15199360       1.34597525      -0.44220118       0.18720011       1.88757443
Ar      17.55203434      10.71281471      11.97570375      -1.34597525      -0.50426081       1.24619197       1.00370319
Ar      22.33957507      10.29114951      23.51981896       1.34597525      -0.95469664       2.52385340      -0.91798971
Ar       7.90503510       7.66989737      31.48454848      -1.34597525       0.96542521      -0.09729317       2.57255698
Ar      16.89244515      34.40579650      19.20917712      -1.34597525       0.12286740      -2.33328451       0.35910073
Ar      31.97491404       5.33204591       2.91183064      -1.34597525      -0.67546119      -0.38544556       0.51269338
Ar      15.65604428      32.38182926      33.82448725      -1.34597525      -2.67794828       0.27447959       0.42613063
Ar      17.41753603       1.72589861       2.79069680      -1.34597525      -1.37322801       1.41054899      -0.52122839
Ar      24.97619639      25.07272373      26.81397694       1.34597525       1.97532834       0.32979978      -0.04323158
Ar      22.77790647      22.24027936      18.16114136      -1.34597525       1.66960849       0.48393848      -1.17819265
Ar      15.75465905       4.19583921      29.74973307       1.34597525      -1.20153265       0.14535064      -0.40216856
Ar      33.52285537       0.12015809       6.69771155      -1.34597525      -0.69606148      -2.00556814      -2.38662758
Ar      14.55990520      10.47338949      16.36331064       1.34597525       1.03556726       5.57821480       1.19683212
Ar      12.40747129      29.05246532      34.30819917      -1.34597525      -2.57603967       1.07665714       0.58154019
Ar      15.47150509      11.41580506      22.48247185      -1.34597525      -0.83209013       0.82001319       1.78622420
Ar      34.69403382      25.56046785      25.10402576       1.34597525      -0.36950369      -0.38136510      -3.43457227
Ar       4.63894090      22.39483568      18.41832318       1.34597525       1.76949506       1.51701229       0.41757810
Ar      18.87062683       0.08072036      26.33524940       1.34597525      -0.30385036      -1.63798178       1.77299801
Ar       5.88960825       9.40040633      25.53259652      -1.34597525       0.78794516      -0.16161281      -1.19291796
Ar      28.99156210      21.97354792      28.76440172       1.34597525      -0.65691970       0.73480637       1.32956257
Ar       9.47921945      23.45566626      31.46381097       1.34597525       1.46773771      -1.33419730      -1.48659785
Ar       8.91973720      13.97267077      16.06190909      -1.34597525      -1.14486511      -3.83021683      -0.87447223
Ar       2.82307677      20.14219599       3.34255613       1.34597525       1.39576448       0.84162876      -0.77413253
Ar      22.41759622       1.08368015      21.67795004       1.34597525      -0.94442373       1.77917367       2.58468418
Ar      15.80449428      24.85968445       9.63266744      -1.34597525      -0.57994653      -1.28493437       3.71555899
Ar      17.07341436      13.83197106      28.02166982      -1.34597525       0.88221277       2.10433946       0.36285652
Ar      32.59542233      20.34154210      15.34412953       1.34597525      -2.60783185      -1.53599946       1.19515421
Ar       5.57508599      23.99129880       5.47248671       1.34597525      -2.01561892       0.74043022      -3.03630912
Ar      15.69269177       9.22022682      31.41731857       1.34597525      -2.47225862       0.47592431       1.06985995
Ar       4.81758137      26.68929364      28.61055319      -1.34597525      -1.78810800      -1.17467995       1.60082756
Ar      27.14795529      14.12448199      30.21233853      -1.34597525      -0.46388857      -0.53891667      -1.07366071
Ar       9.39072130      32.02521987      24.43902515      -1.34597525       0.67903998       1.91506604       0.47523357
Ar      19.10113938      15.83048167      17.29664144      -1.34597525      -2.33845248      -1.17841724      -1.15590738
Ar       6.57676513       3.12088433      23.25076936       1.34597525       4.15637264      -0.39445575       0.22958695
Ar       5.85078514      14.43305707      10.13187285       1.34597525      -1.56452764      -0.54051562      -0.20463834
Ar      16.46531800      15.26673762       2.57078287       1.34597525      -2.54933810       1.24052937       1.08556801
Ar      15.51462713      10.56657381      28.48844615      -1.34597525      -1.05335538      -1.05104654      -2.20601773
Ar      18.57475642       4.87634175      22.81906883       1.34597525      -1.70763122       1.63083949       0.17919695
Ar      29.84326543      13.53387674       1.55946860       1.34597525      -0.89287891       2.30636207       0.13979034
Ar      16.17997362      19.39539735      15.56898219      -1.34597525       1.97810439       0.67210662       1.29462103
Ar      35.13221264      24.41834954      28.12953089      -1.34597525       0.14786644      -0.14286293      -0.12391799
Ar      19.95577704       7.38330233      12.72679875      -1.34597525      -2.34603327       3.20192878       0.06178691
Ar      24.27167179      12.47468649      25.03120237      -1.34597525      -1.70351681      -0.26457730       3.54343868
Ar      34.21745586       1.79556233      33.35210265       1.34597525      -3.00965350      -0.91296915       1.43872688
Ar      34.29315709       3.55351340      24.84895525      -1.34597525      -0.10874450       1.96972010       0.38494094
Ar       3.21452374      17.14699565       4.79234425      -1.34597525      -2.43505906      -2.63685247      -2.53757500
Ar      18.52697844      22.29293025      18.48509083      -1.34597525      -0.43678994      -1.28168122      -0.07963703
Ar      27.99198182      26.83021860       4.99327884      -1.34597525      -0.71187319       3.15164551       1.37892431
Ar      21.81071600       2.26103398       4.45392443       1.34597525      -0.81408193       0.66621501       1.08995898
Ar      13.47857613      34.54072116      16.57121423      -1.34597525      -0.85833334       0.23894447       0.88411721
Ar       0.69091075      14.39772107      20.35191856       1.34597525       0.47317431      -3.56094123      -1.32633540
Ar      26.23218163      22.81934489      24.93368767      -1.34597525      -0.68591483      -2.63853336       1.08067938
Ar      27.29053931      26.66922973      18.40376424      -1.34597525       1.32871126      -0.40701584       0.56807714
Ar       3.34197877       3.96504667      23.73451171      -1.34597525      -2.24236171      -0.31463128      -1.20623821
Ar       3.22681557      29.27670393      13.23631318      -1.34597525      -1.34643907       1.08905122      -0.79535507
Ar       7.48967530      29.98885555      21.30937566      -1.34597525      -1.32943067      -1.61405059      -0.28886829
Ar      17.71555392      23.73696342      34.11536545      -1.34597525       2.01891431      -0.48350125       0.03405703
Ar      25.52350423       6.67359801      10.19362356      -1.34597525      -0.04234141      -1.69479656      -0.97838058
Ar       9.34226439       2.23079382      34.71395945      -1.34597525       1.23145697      -3.39846464      -0.67498242
Ar      31.65453304      25.91956171      23.26979024      -1.34597525       1.43003331       0.66408640       3.47509239
Ar      17.47460394      11.60889604      18.18986102      -1.34597525      -0.67701451       3.27190682      -0.18864857
Ar       7.45150697      18.31258852      27.96266968      -1.34597525       2.62992961      -0.53599288       1.88415116
Ar       4.24023029      20.95468173      31.41835285       1.34597525      -0.68346615       2.65919060      -0.71143369
Ar      24.57242586      25.83152092      30.87565938       1.34597525      -0.77273212       2.60711133       2.32901117
Ar      13.31163887      28.04881224       2.11828782       1.34597525       1.80215195       1.93172663       2.18244972
Ar      10.68442176      26.60786258      13.80849385       1.34597525      -3.67845758      -2.76773641      -0.00886711
Ar      27.77365899      19.61874055       9.61430536      -1.34597525      -2.26715674      -1.19370834      -1.30458762
Ar      25.66943323      32.72486577      28.43691890      -1.34597525      -0.70174149       1.79191055       1.01140049
Ar      30.57263728      13.80170115      22.44026196      -1.34597525       2.56889681      -0.51035926       1.39153648
Ar      35.17653756      21.33912626       4.20462816      -1.34597525      -0.16175316      -1.16110583      -0.85725096
Ar      22.08212520      25.20314501       7.49951560       1.34597525       1.25954041      -0.63566518       1.80295152
Ar      13.61931411      34.40511774      30.38684657      -1.34597525       2.69460698      -0.66138451       0.68078942
Ar      10.72932969       2.45002825       3.86534142       1.34597525      -1.71801867       0.35790075       0.39549057
Ar      14.04841976      17.23905279       1.44024009      -1.34597525      -1.69233728      -0.31956622       1.37157224
Ar      10.86515790      17.77764651      33.25301540       1.34597525      -0.49941761      -0.55945039      -1.25295205
Ar      14.29827355      10.85513459       6.84380664       1.34597525       0.64902738      -1.22661753       1.36220970
Ar       4.71669319      18.66866114      19.51413684       1.34597525       0.29461276      -0.43540814      -1.28701662
Ar       0.58636285       4.70154104      35.11927479      -1.34597525       1.89591573       1.14761649      -0.02403886
Ar      11.35985893      28.15221089      10.91102883      -1.34597525      -0.52040343       2.00201284       0.58441131
Ar      28.22359428      17.40270997      34.48643056       1.34597525       1.46771583      -0.68346667      -0.05195689
Ar       2.16072641      12.54823782       7.86574483       1.34597525      -1.54463412      -1.21889579       1.69705954
Ar      28.67605305      20.08214989       6.30954400       1.34597525      -0.19606647      -0.96777727      -1.14039327
Ar      21.80483803      23.10527764       3.74813958       1.34597525      -0.19827242      -0.51680852      -1.05480923
Ar      10.13491187      11.18832705      25.33914407      -1.34597525       1.79909973      -0.55926155       0.78846969
Ar       8.21825613       1.77254213      14.78892969       1.34597525       0.56339863       0.83275912      -2.78097952
Ar      11.15978861      14.56907751      25.16562199       1.34597525       1.47267950       0.83468022      -0.13503988
Ar      10.21259300      16.68617256      29.07245051       1.34597525       1.74939331       1.82889798      -1.04875285
Ar      11.56945231      12.39509875      31.89415435       1.34597525      -1.47993759       3.02502879       2.35695595
Ar      10.46070841      33.98894172      31.47357373       1.34597525      -0.04930347       4.36320585      -0.90293455
Ar       2.58347805      34.02828785      29.30112670       1.34597525       1.53952428      -1.18296113       1.01743778
Ar      22.83990316       5.42397853      19.07734910       1.34597525       1.01497575      -2.94785547       0.42266660
Ar      12.65802280      19.80894498      30.57646865       1.34597525      -0.27798190       0.06927537       0.51786868
Ar      28.49400557       8.66967511       5.00116052       1.34597525       0.21717816       1.49709095       2.61833264
Ar       7.61215602      15.44302960       2.63673238      -1.34597525       1.90738531       0.63196037       1.21323794
Ar      17.40509278       6.11028062       1.22796662      -1.34597525       0.21406064       1.64505772      -0.78158505
Ar      14.53270005      19.31700293      12.40187495       1.34597525      -2.00944535       0.50581882       2.69694297
Ar      30.46559512      28.73208831       6.14207178       1.34597525       0.03505684      -1.66746462      -1.72869094
Ar      20.85562172      11.61654648      11.48969735       1.34597525       1.70276505      -1.54887566      -2.18106298
Ar       5.72031409      19.39284920      15.26237361       1.34597525      -0.61345053       1.42746019       0.12876755
Ar       7.25796900      28.18180055      17.74999559      -1.34597525       1.54921706      -0.23078917       0.92563992
Ar       1.16708836      30.23594465      15.64198477       1.34597525      -1.53401522      -1.64386730       2.20191493
Ar      17.64707314       1.62644020      23.58470805      -1.34597525       1.13686375      -1.14179734      -0.45763918
Ar      18.98428710      20.99740047      12.69720186      -1.34597525       0.19420791       0.50318796      -1.37276892
Ar       7.51863372       5.38186057      13.24187687       1.34597525       1.49786016       1.78198684      -2.68524538
Ar       5.39473644      23.21501796      24.69284984      -1.34597525      -1.01256124      -0.95910551       0.30140394
Ar      17.67461128      11.67309219       0.17042578       1.34597525       0.14048308       1.22462541       0.02146639
Ar      17.92889703      28.96712611      13.99838150       1.34597525      -0.15690647      -0.06548585      -1.22133874
Ar       2.96235985      26.29177868      10.25033263      -1.34597525      -1.79830177      -0.77766433      -2.36017118
Ar      10.12372956       4.81754850      28.93688978       1.34597525      -4.09536789      -2.10379183      -0.25480268
Ar      18.29178470      23.01090234      28.62058089      -1.34597525       1.60891980      -0.87923737      -0.33467554
Ar      21.38872560      11.26292642      14.84208235      -1.34597525       0.89937555      -0.78826667      -1.97776489
Ar       7.91046742       0.53656581      25.20532136      -1.34597525       1.31816903      -1.28565604      -2.00378123
Ar       4.89105935      16.04833369      26.76483905       1.34597525       0.71035721      -2.35136121       0.52253371
Ar      12.14584454      18.23738169      26.84357448      -1.34597525      -1.63490009      -0.98741824       0.38691672
Ar      12.21686910      19.39381116       4.01734931      -1.34597525      -2.17605259      -1.77089699      -1.60098728
Ar      27.22275611       9.47547499      11.60753644       1.34597525       0.60875556       1.23009772      -3.53780016
Ar      34.04019551      21.68865420      10.91536182      -1.34597525       0.07174691      -0.86092409      -1.30552441
Ar      26.67641652       5.46837729      34.38908268      -1.34597525       0.19854083       1.92138078       0.97732135
Ar      13.60061518      25.06135931      18.27349154       1.34597525       2.39197037      -1.16872242      -0.09183208
Ar      33.36755267       5.34456403      11.74692380      -1.34597525       0.88381568       0.06824421      -0.33339847
Ar      25.22219051       8.95162431       4.14382053      -1.34597525      -1.19402689       1.35129197      -1.20253688
Ar      23.06343379      24.75835187      14.37762691      -1.34597525      -0.00101820       2.23192903      -3.19434819
Ar      17.16757441      24.71027445       2.19533549       1.34597525      -0.70888227      -2.77256787      -2.83601622
Ar      15.41414833       4.46952607       3.35522402       1.34597525       0.96442293      -1.05619147      -0.58732299
Ar      24.47057196      13.89191823      11.06723305       1.34597525       0.61450667      -2.78924225       2.80588189
Ar       5.32564315       4.05219496       7.39758040      -1.34597525      -1.01478323       1.05141857      -1.49619788
Ar      13.14296795       8.81535136      33.93409583       1.34597525       0.18306725      -2.38936677      -1.57131857
Ar       9.71364597       7.72596290       4.03051224       1.34597525      -2.56169231      -1.33044363      -1.25527916
Ar       2.82809397      20.15068334      16.75959775      -1.34597525       0.51276184      -2.27282618       0.78224200
Ar      32.17633187      12.47130220      11.36627517       1.34597525       0.69548209      -2.45478962       2.70566189
Ar      25.05875141      26.69682981      12.21268518       1.34597525       0.88090134       0.59745818       0.36060705
Ar      11.77305643      17.43243217      23.23488953      -1.34597525      -1.28801578       0.54111462       1.61787085
Ar      18.83467699      32.04864097      13.61003863      -1.34597525       1.49476698      -3.16452608      -0.65992649
Ar      18.60868581       3.10327586      31.89822600       1.34597525      -1.35247131      -0.02197689      -0.70477805
Ar       1.15103556      10.02477591      28.33329498       1.34597525       2.01077324      -1.46524312      -0.62347724
Ar      26.79809815      29.74990756      29.62566876       1.34597525       0.25469251      -0.96251583      -0.52343007
Ar      12.27533696       1.93334265      14.93601700       1.34597525      -2.30706240       0.63438418       1.17733669
Ar       3.20569541       8.50096982       3.34740319      -1.34597525      -1.06956416       2.73007056       2.23793134
Ar       2.18709195      27.87499841       0.18573422      -1.34597525       0.26195832       1.07098894       3.04154704
Ar       2.76769416      21.39971925      23.69457120       1.34597525       3.33728784       0.16332962       0.96664951
Ar       7.95812018      17.17544392      34.90779960      -1.34597525       0.58171509       0.11552867      -1.15355152
Ar      24.26440559      16.38330908      14.02049069       1.34597525      -2.45702401      -3.59342237      -4.36640426
Ar      31.90069011       8.09601727       1.12878093       1.34597525      -1.04612468       0.43834519      -1.06297675
Ar       9.37738001      30.82596922      32.10057327      -1.34597525      -0.55982612       0.66500472       0.98377774
Ar       6.88624704      24.53395615      19.90062634      -1.34597525       0.63855723       0.33233706       2.08817867
Ar      16.16107927       4.63120028      15.07822729       1.34597525      -0.72789681      -0.27957207      -1.97647286
Ar      30.97344330      33.56106472      17.14935281      -1.34597525       1.40388775       0.72966825      -2.06706233
Ar      15.48445792       1.52041882      26.25206487       1.34597525       1.53881955       3.29883034       2.45762115
Ar      21.20684682       5.67775567       6.72258284       1.34597525      -3.58206330      -0.08259099      -0.32429389
Ar       3.41272582      34.78442927      18.86801108       1.34597525       0.52759494       3.51546455      -0.75800548
Ar      32.51522723      16.55859804      12.03539970      -1.34597525      -0.24096821       1.89968360      -0.42110966
Ar      14.97571335       8.01976123      22.41714125       1.34597525      -2.57292822      -1.90537997      -1.45236920
Ar       3.27843173      25.45388427      25.96199515       1.34597525       1.90265627       0.92976172      -1.08099708
Ar       6.71330572      20.66580688       6.11855197      -1.34597525       1.62709946       0.43970125      -1.88161758
Ar       8.28840812       2.46314115       9.51703677       1.34597525       0.94028061      -1.62495296       0.76408841
Ar      24.73693679      24.89002800      17.35139229       1.34597525      -1.20454602       0.34839928       0.31909859
Ar       6.50780236      33.29245986      23.27530238       1.34597525      -0.94872998       0.29885055      -4.47554460
Ar      31.08168572       0.00105899      26.81157281      -1.34597525      -0.02544797       2.16398160       2.81586380
Ar      14.85347147      28.52050534      12.98295155      -1.34597525      -1.04761045      -1.88394902      -0.18357846
Ar       1.46374542      17.27904672      17.61309094       1.34597525       0.19847626       0.56364713       0.62087551
Ar      21.40315307      22.98678333      34.51391776       1.34597525       0.13820489      -0.07220115      -2.21312254
Ar      11.45959872      29.89992655      14.25210311      -1.34597525       2.83894090       0.62386361      -1.37669359
Ar      13.77473109       7.36473431      14.79340550      -1.34597525      -2.87412226       1.09471555       1.45180016
Ar      30.85357498       6.25816703      14.06724437       1.34597525      -0.43633068      -2.16819687      -0.33134110
Ar      32.61692020      13.20213846      19.24205527       1.34597525      -0.26395056       0.39499337       0.50245146
Ar      26.98184048      28.84888576      24.87938961       1.34597525       2.28625227      -1.15409496       2.44469883
Ar       9.38192190       2.16467649      21.56562169      -1.34597525       0.06484066       2.87095597      -0.52883757
Ar      22.31877432      10.91327240       8.13764153      -1.34597525      -0.23071120      -0.25572614      -3.95580128
Ar      30.22691358      35.21735529      34.83018025       1.34597525      -6.44322106       1.11074100      -0.29850420
Ar      17.00864225       2.35932884      20.21579907       1.34597525       0.36684546       0.79073485      -1.90885463
Ar      21.71183957      26.22064247      32.59294697      -1.34597525      -0.00416289      -0.99842715      -0.42620398
Ar       3.49056652       0.37316109       9.56518340       1.34597525       0.86780385      -0.79904018       0.29199558
Ar      19.61750796      26.20705493      22.25487847      -1.34597525      -0.17796626      -0.34096701       1.70404639
Ar       8.89167066      17.97865470      24.97717155       1.34597525      -3.42084894       1.25067981      -1.36097898
Ar      27.91379970      13.97957692      20.63487221       1.34597525      -0.65078177      -1.08674155      -0.62316961
Ar      34.06536596      26.08975929      15.96748961       1.34597525       0.08460166      -1.19215766      -0.69092950
Ar      12.62400049      24.58106463      30.84278506      -1.34597525       1.24263823       0.82570453       0.48508971
Ar       3.61327682      32.11123361       3.90636747       1.34597525       4.10318014      -1.30880776      -0.06383486
Ar      20.01854609      20.39824171      29.50060026       1.34597525       0.75624147       3.08237600      -1.73500741
Ar      12.34560390       5.80563252       7.30629303       1.34597525       0.51085642      -0.72318496       1.07917401
Ar       1.34356194      28.10645480      26.80605303      -1.34597525      -0.01728892       1.03228653       0.42549574
Ar      10.93076210      20.64369133      16.26731094       1.34597525       0.84207903      -2.30444794      -2.29020166
Ar      35.26494480      21.02905853      26.78252936       1.34597525       0.78514808      -0.37294393      -0.64785149
Ar       4.67690788      32.38205706      20.77148285      -1.34597525       0.73423091      -1.59522444      -0.94744856
Ar      29.70568621      33.13449617      13.31744831      -1.34597525       2.48689630       1.10005265      -1.42025194
Ar      33.44101719      31.92389138      20.80977009       1.34597525      -1.72747448       2.25132384      -0.55708007
Ar       9.12188796      21.50238881       9.30938344       1.34597525       0.17853709       0.49892033      -1.17263380
Ar      15.90488060      27.16087957       4.20387115      -1.34597525       0.36918714       3.65202927      -0.98536241
Ar       3.29888931       2.72293596       2.82533458      -1.34597525       0.75126558      -0.59722265      -1.85334090
Ar      21.45933136       1.18436851      24.77492385      -1.34597525      -1.92392489       0.62695233      -0.58576116
Ar       0.17292416      33.43352514      25.01380305      -1.34597525       2.65814820       1.80392361       1.05410076
Ar      19.77581044       0.37791837      15.34223264      -1.34597525       1.14519443       1.13305213       1.86434693
Ar      15.89498881      34.18150969      12.38438665      -1.34597525       1.96737306       0.85564372      -1.00619547
Ar       7.01019522       8.77729303      14.63894792      -1.34597525      -2.43767001      -0.90554419       1.64624835
Ar      13.78167728      32.23627483      14.16075121       1.34597525      -2.47826409       1.44062122      -0.64683242
Ar       0.73103025      30.60398255      11.32882885       1.34597525       0.56536829      -1.22264976      -0.43141791
Ar      14.09335956      11.23789072      11.40499374       1.34597525      -1.28750390       1.28092478      -1.29540349
Ar      18.73992355       6.59636896      16.32260289      -1.34597525      -1.65689174       0.05768979      -3.05123539
Ar      19.24970562      28.72016003      20.01613696       1.34597525       2.76616671       2.11016112      -0.26163477
Ar      17.43359447      13.92039191      11.67157811       1.34597525      -0.57695769      -0.73403245      -4.07041637
Ar      33.47578480       6.90178734       5.62755962       1.34597525      -1.50487392      -0.07274280      -2.01055067
Ar       0.05089315       3.22961809       2.61412320       1.34597525       1.18369895       4.56388503       1.53548422
Ar      30.52376011      29.23838618       2.63030513      -1.34597525       0.49235905      -1.65141079      -1.33083233
Ar      25.07848509      18.22489456      33.05370201      -1.34597525      -1.17045561       4.19109590       2.21978288
Ar       2.31425165      12.81168973      30.57899986       1.34597525       0.23128476       1.89537963      -2.66636245
Ar      27.37984316      25.59333479       0.95410968      -1.34597525       2.64657367       0.58896908       1.02766291
Ar      18.14545797      13.02260871      32.51140302      -1.34597525      -0.29746042       1.68996677       1.72239089
Ar       7.61226235       3.72962616      19.02843459       1.34597525      -2.22287408      -2.64361237      -2.70255465
Ar      20.88747716      13.83814943      27.77641224      -1.34597525       0.79432046       0.99407598       1.76881185
Ar       7.46589460      32.98821549       2.60386081       1.34597525      -1.63679027      -0.20631434      -0.39361559
Ar       5.81957829      12.58052805      15.58800601       1.34597525       0.56017156       0.38933864      -0.56918454
Ar      10.82993693      21.83507687      28.61169682      -1.34597525      -0.82948373      -1.39000439      -4.03993533
Ar      23.32241445       6.61253734      23.48512244       1.34597525       1.88962698       0.35112106       3.23247576
Ar       9.94360222       8.65773273       9.31807272       1.34597525       1.84637743      -1.01848313      -1.89097832
Ar      24.75572457      18.63439557       2.15609677       1.34597525       1.42531927       0.50827383      -0.36680496
Ar      18.28615381      29.62273948       5.20307815       1.34597525       0.49832643       1.92009909       1.96821345
Ar      26.51784578      34.80861387       9.40404388       1.34597525       0.12868623      -3.56026481       1.27814327
Ar      18.63431292      25.92282383      27.11964949       1.34597525      -0.25561358       1.03314515       1.22901144
Ar       9.90015582       7.95281106      28.03611724      -1.34597525      -3.06777354      -0.62729525       1.33162681
Ar      15.11851693       5.14330663      11.77083368      -1.34597525       0.05323610       0.76252230      -0.74247697
Ar      10.37436829       2.25669172      26.45736404       1.34597525       2.86415964      -0.74424420      -0.34052632
Ar      23.36904299      14.72755108       2.62754607       1.34597525       1.56885690       1.11523534      -1.15190667
Ar       0.99486276      20.67834325      13.24881532       1.34597525       0.34976250       1.28885221       1.07456340
Ar       0.28483290      16.03958019       2.97298075       1.34597525       0.33507364      -1.32972299       4.06535285
Ar       0.27785571      33.22321966       8.37653567       1.34597525       2.62309844      -3.93965039       1.43553160
Ar      26.13844467      32.37922839      19.20926479      -1.34597525      -5.16970959       2.23264527       0.09036778
Ar      30.04137422      15.13706338      18.13489527      -1.34597525       1.73250109      -2.25664425      -0.16119015
Ar      34.76716409      28.34466920       2.24232383       1.34597525      -2.07691949       3.24897894       2.35886455
Ar      18.07240311      10.88106578       8.69271656       1.34597525       0.24264884      -1.94115379      -0.09083986
Ar       6.28870524      17.48894958      31.08516989       1.34597525       1.51689973      -2.02105652      -0.66750959
Ar      22.62464734       5.46373806       3.64245054      -1.34597525       3.76403016      -4.28310500       0.92189862
Ar      12.03858698      17.35260373      13.64940457      -1.34597525       0.02867140       0.87024640      -1.71064723
Ar      14.42683010      25.95547490      34.14789497       1.34597525       1.23440469      -1.04058121      -0.18453191
Ar      24.10961789      35.03038863      17.53363232      -1.34597525      -1.45343982      -0.16133757      -3.39454777
Ar      21.49269400      16.94686231      28.71678250       1.34597525      -0.51878843      -1.33158880      -2.81738159
Ar      32.32082798       1.57616963      21.25899968       1.34597525      -1.52564661       0.93837480       0.09865824
Ar      25.94909784      14.59969696      27.02747159       1.34597525      -2.24426574       2.16741044       1.63364738
Ar      12.30722630      21.62898431      19.16638748      -1.34597525       1.16861232      -1.89219251      -0.10136643
Ar      21.72421557       7.94832617      15.56996656       1.34597525      -1.33818374       4.77430915      -1.15983517
Ar      32.26796526      11.04758581      22.47324888       1.34597525      -1.57812474       0.31439639       2.20570405
Ar      28.14730057       6.81309579      22.90887144       1.34597525      -0.72297011       5.59067662      -1.93763749
Ar      33.98314944       3.40574654      17.08762597       1.34597525       0.06164137      -0.01199915       1.14949454
Ar       0.50461528      16.64859000      11.14573413       1.34597525       0.52811649       1.12326962      -1.11241146
Ar      34.41355362       8.48566171      12.98723341       1.34597525       2.11232484      -0.72371757       1.62355491
Ar      23.50718062      14.17948962      21.85369994       1.34597525       2.95719009       0.71164035      -0.12543033
Ar      33.23080349      29.82157488      32.06684095      -1.34597525       0.80801845      -0.11823737       1.22319584
Ar       2.72749556      24.16162417      29.88988039       1.34597525       1.50123730      -0.46741503       0.68277854
Ar      24.03645239      11.21206685       1.66955635       1.34597525      -0.48587317      -2.84051304       0.88197146
Ar      32.50231500       9.71629838      19.55113545      -1.34597525       0.68715241       3.32360502      -2.85573618
Ar       2.01503892       6.75322432      12.63821346      -1.34597525      -0.58379977       0.33453454      -0.95476223
Ar      34.51354172      14.09724268       9.22877630      -1.34597525      -0.80281557      -0.77703370      -1.42636708
Ar      29.31075445      23.15900616       5.35072170      -1.34597525       0.41456750       0.82011534       0.96452694
Ar       3.13797355      10.05324634      33.14675267      -1.34597525      -1.47859447      -0.06274430      -3.15631152
Ar       0.67382911       4.74696976      27.46748419       1.34597525       0.19620595       2.19697251       0.66745809
Ar      22.35628740       8.06963109      10.43217345       1.34597525       1.44289985       0.23704012       3.44476070
Ar      15.42635764       2.84093357      32.74215449      -1.34597525      -1.37256791      -0.26952331      -1.97889843
Ar      35.16979106      23.77137807      13.73374438      -1.34597525       0.28692021      -1.56386988       0.60421682
Ar      34.88032257      24.01900320       1.71372035       1.34597525       3.88455964       0.35169549      -0.96449928
Ar       2.58431867      13.95940894      10.83136697      -1.34597525      -2.03013480       0.23210587      -0.82006962
Ar      25.22766212       2.97199865      32.44031263       1.34597525      -1.13584824      -1.46820710      -1.10390457
Ar      29.47471879      23.90802879      17.71448496       1.34597525      -0.92436308       1.22987313      -2.57915923
Ar       3.92640558      32.48524032      12.68748572       1.34597525       2.12556541      -0.31956326      -2.13466159
Ar      14.86420009      16.38671540      15.43179923       1.34597525      -0.02899563       0.00427963       1.51532221
Ar      30.00703350      16.01103214      30.14171584       1.34597525      -0.02328531      -1.40336714       1.71589063
Ar      29.28609706       2.44351407       4.42125446      -1.34597525      -0.42495206      -0.05721502       0.79669105
Ar      23.18100037       9.01082750      19.92832094       1.34597525      -0.22332514       0.16546018      -2.31491751
Ar      34.72136343       9.49564222      23.99190517      -1.34597525      -0.14479276       0.92019596       0.84535841
Ar      20.92403697      33.18018801       6.16274162       1.34597525      -1.72495925       0.48068002       0.53039967
Ar      29.10068646      16.80956174       6.69822477      -1.34597525      -1.00180914       1.29393938       0.26785154
Ar      11.92860852       3.80297270      23.02651369       1.34597525       0.96599267       0.41072318       0.46075842
Ar       6.94175996       8.04863177       2.10401762      -1.34597525      -0.07883309      -0.61785907       1.27194381
Ar      19.90090849      12.42498380      24.32046314      -1.34597525      -0.23773851      -0.50106380      -0.03697631
Ar       8.19368035      17.64731725      21.14095203      -1.34597525       1.10719179       1.23015943       0.89429982
Ar      14.74296557       9.33671027      19.43137863      -1.34597525       0.19106230       1.49289997      -0.92768390
Ar      20.49456668       3.45025609      20.54048649      -1.34597525      -0.62276225       1.34833567       0.50006749
Ar      23.28228566      15.20392966      18.55388806      -1.34597525      -2.32701971      -1.84047362       1.52569854
Ar      34.95973494      28.21301575      13.47563549      -1.34597525      -0.66209937      -1.26134538       0.75358149
Ar       7.80173877      24.79224345      23.14832449       1.34597525       1.50259780       1.76427548       1.26672274
Ar      17.41679584      20.02430663      26.17525157       1.34597525      -1.42090603      -0.34646790      -0.94102621
Ar      11.75329823      13.93329406      13.51141687       1.34597525      -0.09018701      -3.45088046      -0.27750950
Ar      34.56194437       7.39218579      28.92936087      -1.34597525      -2.16674573      -0.53592102      -3.58773915
Ar       9.54104569      24.16773521      11.14807324      -1.34597525      -2.66271483       0.09097544      -1.03590510
Ar       4.31255313       9.22427715      12.58126020       1.34597525      -0.82881514      -1.86410004      -1.45859431
Ar       1.18368188       7.58694897      31.72297279       1.34597525       3.01819206      -0.94664560       1.25154995
Ar       8.18133065      13.35381842      29.68526281       1.34597525      -3.53594794       0.23788293       0.96036402
Ar      18.52369859       4.33632221       5.35813294      -1.34597525       0.06887115      -0.77670148       3.44508793
Ar      30.42141395      19.16882538      11.79353616       1.34597525       0.51109341      -0.62001839      -0.73029850
Ar      22.17385398      17.96945778      34.76108137       1.34597525      -1.37688926       1.40801400       0.82498885
Ar      22.74430775      23.42125766      23.86401556      -1.34597525       0.64594485      -1.16132051      -0.00137625
Ar      10.62542627      34.79924722      23.23504268       1.34597525       0.43060764       0.58659439      -0.45786456
Ar      24.74573185      22.34605248      34.56395702      -1.34597525       2.50259776       1.17246823      -1.30513055
Ar      27.12035613      14.28257104      23.83552069      -1.34597525       2.56381748       2.32481294       2.80288417
Ar      31.59336123      18.49529575      27.53282601       1.34597525      -0.82264355      -1.22494148       4.31293159
Ar      13.35959534       8.52083845       9.27692249      -1.34597525      -1.28817348      -0.92265546       1.20792261
Ar      27.28696154      11.27890559       1.14427275      -1.34597525      -1.21136004      -1.23241328      -1.94250337
Ar      11.50233245       4.35623714      19.59390375       1.34597525       0.40778613      -1.93430379      -0.66209063
Ar      14.66061668      33.00371012      27.60334013       1.34597525      -1.37199705      -2.09030649      -1.11525230
Ar      20.59390089       7.40778847      21.28384947      -1.34597525       0.73273195       0.44800638       0.70830726
Ar      12.37297056      35.15206241      33.93834182      -1.34597525      -0.28151416      -0.79697155      -1.40307894
Ar       4.29179591       1.24560249      15.28753997       1.34597525      -1.12072651       1.36793442      -0.32137827
Ar      29.32870724       3.53764624      32.97790989       1.34597525      -2.59020482       1.47330356       0.61572483
Ar       4.06795308      25.17134406      16.59403368      -1.34597525       2.62088979       1.03615104      -0.31213168
Ar      28.24246749      34.74264535      29.17210856       1.34597525      -1.90920705      -1.71988790       0.08753631
Ar      16.06973332      18.08827023      19.64589240      -1.34597525       0.04544671       0.28135655       3.49207647
Ar      20.46914481      14.83208051      12.97897911      -1.34597525      -0.06849400       0.35555113      -3.66120153
Ar      22.18332961      18.98123487      13.53494520      -1.34597525       2.37854568      -2.60907927       0.90298761
Ar       7.92347779      26.65522463      33.78833896      -1.34597525       2.27304063       0.67309828      -0.63740546
Ar      33.62862226       1.25465980      14.45985330      -1.34597525      -1.59100412      -1.50424002      -2.25779653
Ar      20.06435626      34.35036452       9.11812975      -1.34597525       1.42956821      -0.40925832      -0.60110041
Ar      24.21262283      32.43174670      22.11002105       1.34597525      -1.24117897      -3.05555298       1.31412929
Ar       4.34383085      16.06339354      16.57318089      -1.34597525      -2.60133539      -0.53620677      -0.69103306
Ar      12.46381151       2.10468050      31.40443785       1.34597525       1.39893273       3.29297375      -0.13419023
Ar       9.36832126      12.45760013       7.89819963       1.34597525      -2.03644025       0.83878047      -2.10914145
Ar      25.18934461      29.09593553      16.85304983       1.34597525      -1.28950354      -0.24745843      -1.50493525
Ar      20.70139597      20.69921065      23.37110531       1.34597525      -1.47022864       1.24180234       1.69216881
Ar      10.97544557      26.62873411      32.71041268       1.34597525      -1.64614509      -0.34650123       1.24611706
Ar      24.92207640      27.17788225       3.81368998       1.34597525      -1.10008584       1.59937591      -0.02990679
Ar      32.64118923      23.11252186       5.33547303       1.34597525      -2.07023157      -0.45701465      -0.60058299
Ar       6.38493914      31.29313160      18.31311792       1.34597525       4.75725012       2.00661097       2.12511267
Ar      22.17332864      30.25879641      15.72482453      -1.34597525      -1.50186647       2.45313648       0.31234028
Ar      18.10106981      28.75404133      10.73887602      -1.34597525       0.59062863      -1.91547220      -2.42950398
Ar      31.39387147      20.67282936       8.07810965      -1.34597525       0.02171831      -1.00341641      -1.31269217
Ar      14.78966106       0.35828899       8.12222925      -1.34597525      -2.12562710      -1.26356753      -3.40688919
Ar      15.14388426      13.38811774      30.58478467       1.34597525       0.23985445       1.03256768       0.23524810
Ar      10.29180019      24.20884695      26.33918361       1.34597525       2.39539519      -0.22545638      -0.22748433
Ar      11.89533856      24.03136161      35.00785106      -1.34597525      -1.34531359       1.13298239       4.27745046
Ar       4.94694660      19.27960095       1.00823177      -1.34597525      -0.89053740      -1.20213589      -0.11388433
Ar      11.53526618      13.57209721      28.51745076      -1.34597525      -0.77790863       0.81548592       0.95972777
Ar       2.36467240      13.85261780      27.45459750      -1.34597525      -0.79922839      -1.12085461      -1.17627981
Ar       1.76284304       2.23496345      17.11114995      -1.34597525       1.79820998      -1.17740445      -1.23098260
Ar      15.42968918       0.63812437      35.26882687       1.34597525      -0.36082608      -1.27071292       0.18317462
Ar      20.00950017      17.50795356       7.19783799      -1.34597525      -4.21153960       0.56105934      -0.17668248
Ar      30.71734091       9.86094240      29.11770809      -1.34597525       2.21520045       0.00151920       0.15765326
Ar      26.15502852      29.24805409      20.31427902       1.34597525      -1.31648792      -2.02271966      -1.15074253
Ar      22.69520634      32.33272114      12.04507111      -1.34597525      -3.69690261       1.95237641      -1.91069360
Ar       3.77763613      25.93776355      13.41067184       1.34597525      -0.71966049       1.62976093       2.45003116
Ar      25.19363651      12.23784276       6.10534198       1.34597525       2.43483080       1.73537420       0.73536620
Ar      18.47816907      12.92218226      15.10783647       1.34597525       0.77993960       0.25796827       3.47242482
Ar      14.22075355      14.84560018      22.11739457      -1.34597525      -0.12291522       1.90060087      -1.58640487
Ar      26.90843856      32.02597046      34.48893356      -1.34597525       1.51972245      -0.98702294      -0.53838321
Ar       5.48140490       4.39960233      15.87904060      -1.34597525      -1.04890125       1.18497572       2.74302207
Ar       3.33747611      24.11272181      21.17612391       1.34597525      -4.03693692       2.01106570       1.11080288
Ar      25.42882930      33.46807518      31.83285571       1.34597525       1.31681324       1.31175411       1.96272077
Ar      25.54300482      26.76330068      22.53650435      -1.34597525      -0.17394745       2.09611125      -2.91047275
Ar      20.13238974       3.98810486      14.64693653       1.34597525      -0.87277429      -0.28225182       1.02336853
Ar      14.51679478      16.01040086      27.72202491       1.34597525       1.79564778       3.01654854       1.77733330
Ar       9.27364701      11.18032417       4.64079668      -1.34597525      -1.44989498      -3.36777157      -2.16893365
Ar      16.72248994      13.49758402      24.76066317       1.34597525      -1.98503148      -0.88527671       1.52397751
Ar      31.92095208      22.56091404       2.03750432      -1.34597525      -0.51388273      -0.94645115      -0.36628318
Ar       2.71528109       8.34066170      22.95049933      -1.34597525      -2.08350027      -0.04867224       1.10852598
Ar       2.84579709      16.62020436      21.26758715      -1.34597525       0.16597151       0.17912626      -0.48896025
Ar      23.09661655      17.11433074       9.83847648      -1.34597525      -1.23513417      -1.49053354       2.98013550
Ar      22.19022188       5.26177719      35.05217834      -1.34597525       2.81612448       1.70650075      -1.08016264
Ar       0.89046454      25.68898611      18.93823161      -1.34597525       1.34065623      -3.35060726       0.78013673
Ar      30.53948679       4.40433981      22.17171443      -1.34597525      -3.34754552      -0.93839886      -1.38644819
Ar      23.83073478      21.56715629      15.06384077       1.34597525      -1.67300816      -0.00393140      -0.38225911
Ar      26.54560789      14.03902781      14.09579747      -1.34597525      -0.40675923      -2.38346397      -2.14058897
Ar      30.45194475       5.36257040      29.91375861      -1.34597525       0.75050062      -2.28709038      -1.16695112
Ar      21.15574638      11.64088426      32.59253485       1.34597525       0.17605611      -1.73385691      -0.36742635
Ar      34.78233364       8.13295694      34.66909035      -1.34597525       1.20750831      -1.47392566      -2.80883813
Ar       7.38411638      25.17288633      16.53671860       1.34597525       1.63344193      -0.36458205      -1.00018300
Ar      25.35980682      18.47465416       7.58392879       1.34597525      -3.14835518      -2.42433438      -2.31037065
Ar       5.04808790       4.94446328      35.07344676      -1.34597525      -2.60580370      -0.74165927      -0.52538792
Ar      21.53501305      27.74832732      13.53106657       1.34597525      -0.97904715      -1.74104892       0.10066820
Ar       7.11111487      12.35195011      24.97170598       1.34597525       3.04202168      -1.16959916      -1.83268454
Ar       5.36968135      13.33298827       3.53978804       1.34597525       2.06950367       0.51757676       2.81540173
Ar      27.79165497      19.68335914       1.74605218      -1.34597525       0.94066969       1.08824804       0.32244000
Ar       4.27154473       0.55455386      22.06774191      -1.34597525       1.83639065       0.98232662      -0.72014485
Ar      12.67415434      32.09301211      35.20322032       1.34597525      -2.23947699      -3.74391689       0.87990699
Ar      28.14837376      10.29204469      32.64597310      -1.34597525      -1.04783598      -0.03303202      -1.18283896
Ar      11.43697334       5.42503393      25.76123641      -1.34597525       2.44100816      -0.49250081       0.93487662
Ar      26.96159560       0.98555256       6.59483653      -1.34597525       0.99197435      -0.43663528       0.14366037
Ar       6.07831359       6.52219501      19.75066474      -1.34597525      -2.95788107      -2.06808603      -0.05581350
Ar      12.02951469       6.15751865      12.02534103       1.34597525       0.61478555       0.45613135       4.37125200
Ar      24.17988698      11.30793825      17.89745894      -1.34597525      -1.00930783      -0.30434670      -2.96590534
Ar      31.94124922       0.13495157      11.71458629       1.34597525      -0.18250233      -0.04520285       0.44430961
Ar      13.71073099      26.88780223       6.84837959       1.34597525      -1.89954095       0.15517420       0.33282314
Ar       2.90702910       7.52808068      35.29282238       1.34597525      -2.54053093      -1.00924571      -0.61009897
Ar      27.30187482       1.12080640      26.32921938      -1.34597525       0.15053204      -2.48816780      -0.79156304
Ar       6.05396538      21.23320439      10.44351851      -1.34597525      -1.09883148       0.88651526      -1.48783793
Ar      29.78624607       2.72856474      27.88470432       1.34597525       1.09354327       2.76924849      -1.22992142
Ar      29.98301006       7.07866459      19.80379424      -1.34597525       1.41946361       0.03527794       0.31091135
Ar      11.39291743      14.41751809       2.13994567      -1.34597525       1.04574815       0.81404365       2.10621704
Ar      27.79828417      16.26309682       9.90296860       1.34597525       3.49466184      -0.47540028      -1.07130535
Ar      27.86742207      11.21071430      23.45316095       1.34597525       2.26713753       0.04162126      -2.16361394
Ar      19.20600744       7.72518325       8.48311951      -1.34597525      -0.12212013      -1.20877033      -1.50399686
Ar       9.33565536       7.81656805      24.80770183       1.34597525       3.21280884       1.13015181       1.54678190
Ar       5.86327755      15.51806203      22.22176561       1.34597525       4.70232047       1.06875440      -0.67518885
Ar      34.85016217      27.45568799      33.68243878       1.34597525       3.75668855      -0.76059747      -1.65202812
Ar      29.30537767       0.97424822      14.06364468       1.34597525       0.96097804       1.09884277       0.92495511
Ar      24.64019466      16.68444815       4.88265946      -1.34597525       0.26533356      -2.09326626       2.12200675
Ar       9.75633490      26.56787128      28.95180979      -1.34597525       1.25856971       2.45265403       2.10445275
Ar       0.96362007       5.14467572       5.11794100      -1.34597525      -0.95053422       2.77345234       0.30237390
Ar      12.32711243      10.33851299      22.94582941       1.34597525      -0.97395818      -1.80356233      -1.65558907
Ar      23.64831063       7.29400115      27.81211121       1.34597525      -1.33641572       1.45992582       0.85204994
Ar      10.18701589       3.33315363      12.61197990      -1.34597525       1.54177622      -0.30370998       0.56775569
Ar      28.46700595      27.36434824      15.35461246       1.34597525      -2.79126745      -0.73195110      -0.68460773
Ar      33.71598556      22.04917473      30.34487971       1.34597525       0.85564270      -0.23165921       1.53813466
Ar      26.13470930       0.82490419      12.45618522      -1.34597525      -2.11834465       0.43182579       0.87979628
Ar      14.42343926      12.67508281      19.53129709       1.34597525       3.30432918      -0.91279663      -0.63718150
Ar      19.27905296      35.00154784      12.19545535       1.34597525      -0.96476057       0.43226636       1.03775315
Ar      15.91747581      25.42564722      12.79250269       1.34597525      -1.11758879       0.10677752      -0.94086054
Ar       2.92783682      31.70715959      31.96091606      -1.34597525       0.36046328       2.16269708      -0.58173124
Ar      24.21093871       4.94797689      30.04220650      -1.34597525       0.45451403      -2.83545503       1.73418681
Ar      31.22844420       1.94261661      18.01353869      -1.34597525       1.06159105       0.83416338       2.35039336
Ar      17.78946015      29.63794572      26.28613913       1.34597525      -0.07673629       0.89394240       3.63804918
Ar      34.45147797      14.58230703       0.04346692      -1.34597525      -0.32682262      -1.57996724       0.22124204
Ar      23.28656353       2.14966600       7.77291672      -1.34597525      -0.12195698      -0.54772797      -1.04185077
Ar      13.67697091      28.38220834      16.18316341       1.34597525       2.75339607      -1.72857750      -0.17322145
Ar       7.22678917      15.97084792      18.28710087       1.34597525       2.76533681       1.99712085      -1.35555862
Ar       8.90488277      15.43606653      31.93276746      -1.34597525       0.30300896       1.45626595       1.51774873
Ar      20.35291946      15.35331273      32.70674254       1.34597525      -0.39876115       0.48862279      -2.24442619
Ar       2.78306117       3.16720458      30.39972493       1.34597525      -1.58995302      -0.89248573       0.30140130
Ar       7.94443391       3.39322827       5.60621308       1.34597525       1.44379809       1.28241608       0.39807905
Ar      16.89781061      19.19503936       1.74655768       1.34597525      -2.78514939      -1.43387773       2.35677553
Ar      29.66910045      24.26142744      26.13335794      -1.34597525      -2.20352117       2.20121360       2.05522620
Ar      30.34859066       8.58644879       9.94521031       1.34597525      -1.80485238       4.02920364      -0.35688720
Ar      24.27235231      21.82345481       9.76274400      -1.34597525       2.05571038      -1.78986976      -0.76631927
Ar      32.10148506      14.20239746      25.42846814       1.34597525       2.14139224      -1.27934164      -1.52848634
Ar      14.08428986      35.14017887       4.96190224       1.34597525      -2.51915685       0.04100066      -0.18057175
Ar      17.49049311       0.93578427       6.09085635       1.34597525      -2.67220192       4.53116547      -0.33767991
Ar      15.93441949      25.72499330      20.64548878      -1.34597525      -0.92660466      -0.41778080       2.23988695
Ar      32.86925168       2.84437954      29.70338901       1.34597525       1.09754148      -0.86038334      -0.16504226
Ar       6.36345068      10.51118256      18.44106746      -1.34597525      -1.36538795      -1.10798601      -0.68061219
Ar       8.81788428      13.70465695      22.44766753      -1.34597525      -0.34987004      -0.21163807      -0.37024520
Ar      24.67933161       7.70510035      17.30030631      -1.34597525      -0.87805847       5.90871145      -1.45268833
Ar       4.77657284      16.02026277       0.32970631       1.34597525       2.48773678      -0.38502326      -2.41643162
Ar       8.72359756      16.65990764      13.96602684       1.34597525       1.49038729      -2.22738261      -1.33183978
Ar      13.80596315       8.52820482      25.44316803      -1.34597525      -1.02881611      -3.32193724       1.38752411
Ar      26.39391323       9.25654639      28.65563796      -1.34597525       3.48446741       0.08750162      -1.06613804
Ar      10.72214445      20.98204990      33.35349024      -1.34597525       2.72838613      -0.29015998      -1.10734782
Ar      25.11884242       4.07039735      12.41026792       1.34597525      -0.85167607       0.77570172       0.20140285
Ar       7.20729184      27.68151615      30.79365682       1.34597525       0.84156907       1.00812142       0.88830564
Ar      25.23929922      18.80193300      16.25786399      -1.34597525       2.48878372      -1.60908243      -2.13964009
Ar      27.31251579      22.23067332      11.86908736       1.34597525      -0.96928938      -0.20888739       0.85616922
Ar       0.92745290      16.82757391      27.63908665       1.34597525      -3.20537829       1.23760108       0.84808470
Ar      15.19155277      33.64611066      22.14056414       1.34597525       1.40746377       2.26492563      -2.63630694
Ar       5.35757493      21.25979532      21.47562274      -1.34597525      -0.81747423      -1.24716038       2.37282385
Ar      33.10842874       1.12218218       1.29469184      -1.34597525       0.50244920       0.87134321      -0.95315962
Ar      26.01917629       3.43762907      23.96468755       1.34597525       0.58888069      -0.55325174       2.23395439
Ar       5.67856032      10.00484921      31.10946049       1.34597525      -1.35276426       0.61692446      -2.22041867
Ar       9.74612326       5.47860110       9.71008851      -1.34597525      -0.12034139      -0.69914603      -0.37141581
Ar       3.31483201      29.40901419      29.57018768       1.34597525      -3.06932681      -0.54182412      -0.20731234
Ar      33.87652182      25.27470288      31.43933454      -1.34597525      -0.64259250       0.69199305       0.22869256
Ar      34.90593966       0.24294522      30.35010158      -1.34597525       1.93552111      -0.52626954       2.00481769
Ar       7.07871875      23.21701757      13.12522574       1.34597525       0.40093361       0.30878509      -0.98328980
Ar      33.87508143      15.26675074      22.76715468      -1.34597525      -1.90887876       0.30828738       1.60705974
Ar       3.93070228      22.26657164      13.71798145      -1.34597525      -0.45000925      -1.48393983      -1.17679406
Ar      23.00668286       6.81335559      32.29365109       1.34597525       2.09402941       0.04896136      -1.44525415
Ar      10.71077613      23.25600300      22.91071876      -1.34597525      -0.67430492      -0.35017861       2.44272369
Ar       6.49567192       0.77724345      17.74369448      -1.34597525      -0.32236538      -1.30737353       0.14026693
Ar       7.47182795      27.27963320      26.65723706       1.34597525      -0.82386144      -0.19158744      -1.22036910
Ar      34.70330080      20.68379878       7.73558305       1.34597525       0.17898847       1.19860936       0.22506869
Ar      19.79586474      17.17654959      10.63504191       1.34597525      -0.49869343       0.24611938       0.69837477
Ar      25.14086801       8.98422417       7.86641597       1.34597525      -0.91111942      -0.63789314      -0.51027449
Ar      32.69666576      27.46651963      10.98660168       1.34597525       0.38633513      -2.47750859      -1.48488604
Ar      27.82641290      16.71498372       3.55788545       1.34597525      -0.29026223      -2.45099183       0.65585179
