1000
Lattice="35.31206757166412 0.0 0.0 0.0 35.31206757166412 0.0 0.0 0.0 35.31206757166412" Properties=species:S:1:pos:R:3:initial_charges:R:1:momenta:R:3 energy=-443.172934416227 stress="-0.0006521356722840851 0.0 0.0 0.0 -0.0007258941375642149 0.0 0.0 0.0 -0.0008912675493561394" pbc="T T T"
Ar      17.69434366       5.65069068      26.70916427       1.34597525       0.40478432       0.86378907       0.90024323
Ar       5.09176248      17.73333151       6.60665057      -1.34597525       0.78015179      -0.37734757       0.07970454
Ar       9.77126885      34.49850795      19.50068903      -1.34597525       0.35239770      -0.41304004       1.31530315
Ar      34.16155325      10.44324257       5.08884791      -1.34597525       0.46672441       0.98086721      -2.07830709
Ar      18.97695010      15.81959125       9.35923896      -1.34597525       1.32104790       0.46253347      -1.74770716
Ar      25.11470961       2.36904458      31.01408213       1.34597525       0.88275198      -0.58035490      -0.01659458
Ar      24.81130699      33.12572817       6.60790823      -1.34597525      -0.77863055       0.55206534       1.63918199
Ar      19.69774165      18.59440688       2.84977274       1.34597525      -0.71254445      -0.22875189      -1.60258249
Ar      20.34889522      13.00662995      29.57009295       1.34597525       2.17291981      -1.26684826      -0.86487222
Ar      28.03501109      27.66588002      18.08801925      -1.34597525       1.98083060       0.60151140      -0.73365907
Ar      24.94666975       8.47193908      33.57444894      -1.34597525      -1.14732746      -0.29882581       1.07677732
Ar       3.24217112      29.05828397      30.33088601      -1.34597525      -1.68558382      -0.20433966       1.70380889
Ar       3.43517869      20.47257124      17.75819808      -1.34597525      -0.08195705       2.64562525       1.82150813
Ar      22.31518085      15.40159677      26.91436650       1.34597525       0.27488279      -2.26068951       0.21128156
Ar       8.73874950      16.92613642      29.55145852       1.34597525       0.10658112      -2.21799786      -0.56949032
Ar       8.09175614      22.18073238      22.64216089       1.34597525       0.52988389      -2.09052454       0.99854153
Ar      17.95029566      18.90216391       7.23176116      -1.34597525       1.96632406       0.33173253       2.42455668
Ar      29.46399835      11.01094215      23.63423090      -1.34597525       0.68003346       1.20576556      -0.92787559
Ar      33.98993356       6.66255601      10.97077381      -1.34597525       1.66985225       2.44456376      -0.11748489
Ar      22.35547277      22.99626725       7.65672085      -1.34597525       0.87184676       2.32940970       1.26468330
Ar      29.07186095      14.61994843       7.70938409       1.34597525       1.29302276      -1.91070415       1.57337733
Ar       8.43994578      25.36004351       3.03349968       1.34597525       0.62738592      -1.07166090      -0.66891350
Ar       4.44895453      25.15594760       6.49264899       1.34597525      -1.03025935       1.61832192      -0.56766191
Ar      25.25764039      21.15722844       4.29061060      -1.34597525       1.53314098      -0.57374905       0.52688345
Ar       0.06559871      25.87117761       3.34895445      -1.34597525       0.63565986      -0.36073893      -2.09837890
Ar       5.66030321      28.52545827       6.83624113      -1.34597525      -2.20180027      -1.81426434      -1.31165722
Ar      29.25634257      33.66170982       9.79652578      -1.34597525      -0.02410926      -0.09686068      -0.57509121
Ar       3.75995955      15.03962265      30.11178703       1.34597525      -0.93781044       0.91232537       0.48690777
Ar      26.94295767       7.21201593       0.08445603       1.34597525      -0.50114367       1.16509811       1.96804292
Ar      24.57932681      20.00329959      27.31981195       1.34597525       0.17699248      -0.13708235       1.03006866
Ar      13.24941949       2.70338107      18.44860607      -1.34597525      -0.53511560       1.05245015      -1.41685166
Ar      10.60070859       0.69734368      16.83835476       1.34597525      -1.54315191      -0.87832418      -0.45764193
Ar      26.38130284      15.72967534      10.04012352      -1.34597525      -1.10021549      -0.34729703      -0.12136200
Ar      20.55463322      19.76287802      15.42465911      -1.34597525      -0.67918863       0.10411145      -1.33058354
Ar       8.20184765       6.33258493      29.13639028       1.34597525       0.97997954      -0.89026006      -0.07776285
Ar      28.20083519      32.15384282      14.47652375      -1.34597525      -1.32038563       0.14672861      -0.02500760
Ar      31.92625360       7.85231682      13.74017239       1.34597525      -1.66942182      -1.23820636       2.53828809
Ar      19.54546706      10.67180330      12.61433133       1.34597525      -0.04511902      -0.50648102       0.88916355
Ar      19.69264544      21.97794804       5.98045685       1.34597525      -0.28290839       0.91574436       0.52480012
Ar      19.30998232      29.18024122      22.38551982      -1.34597525       0.99211352       0.38375089      -0.69814637
Ar      34.45300505      26.22837567      26.32036947      -1.34597525      -0.71297420       0.52655843      -2.45340489
Ar      18.68469818      13.07137037       7.45706610       1.34597525       2.81785311       0.00503918       0.08270820
Ar      13.65391996      29.79711182      16.90348172      -1.34597525      -1.00920400       0.19172193      -0.03760609
Ar      33.90034702      27.82094850      15.28556191       1.34597525      -1.17131073      -0.23652104      -1.38475287
Ar      15.23814372      14.01131311      21.55998638       1.34597525      -0.68689786      -0.69661018       0.09774921
Ar      28.60001483      32.09505226      18.12662492       1.34597525       0.85691203      -0.05631890      -0.37003366
Ar      13.68058672      34.25582706       9.69677171      -1.34597525      -0.92605563       1.19437657      -1.86852515
Ar      27.06399396      31.08145008       7.24154138       1.34597525       1.13877706      -0.56244984       0.32137855
Ar      13.31766275       0.93696870       3.56822678      -1.34597525      -0.50755305       0.70956178       0.87912050
Ar      19.31280480       9.77316619      34.50113634       1.34597525       1.41038191       2.30483868       1.03122659
Ar      29.46669721       2.52581143      22.64466035      -1.34597525      -0.45073189       1.35835062       1.14052053
Ar       8.88970933      33.53105484      16.04233049      -1.34597525      -0.43058534      -0.25575476       1.79549938
Ar       4.32304948      22.96019929      29.57916045      -1.34597525      -2.56552961       1.23117638      -0.14814815
Ar      12.72268368      16.71806564      12.85795267      -1.34597525      -0.25771331       0.61005277      -0.47117893
Ar      15.84591032       9.11758359       9.92522221       1.34597525       1.25356213       1.78165350       0.73644338
Ar       2.78460137      10.08440478       3.48439059      -1.34597525       2.28412756      -0.79909419       1.12806282
Ar      29.32975102      23.14141981      23.89500322      -1.34597525      -2.66562442       1.02305930      -1.95788304
Ar      17.61534105      24.97270230      26.86884773       1.34597525       1.26704877      -0.43282063      -1.13006922
Ar      17.31303576      12.98457456      34.40477321      -1.34597525      -0.93646016       0.29987223       0.21425289
Ar      32.85654725      14.19171050      13.35942133       1.34597525      -0.55591233      -0.74205025      -0.49129882
Ar      20.77175877       1.63769013      32.72102964       1.34597525      -1.32950790       2.07911594      -0.08024404
Ar       1.06876423      16.42035329      15.52077238       1.34597525       0.62764805       1.37569963       0.25742968
Ar      17.04601230      17.85168797      23.28654595       1.34597525       0.65577167      -1.45730342      -0.78806890
Ar      19.43838412       6.65015353      30.02652093       1.34597525       3.67994721      -0.70298764       2.00923027
Ar       4.48143941      13.58543747      23.86893974      -1.34597525       0.96429417      -0.17256845       2.36824617
Ar      32.76622910       8.83253739      24.09908602       1.34597525       0.85589692      -1.57674782       0.52957090
Ar       7.12416710       4.47682410       5.30440603      -1.34597525      -1.77480595       0.16726508      -0.77230712
Ar      24.58184315       3.50988721      18.89581215      -1.34597525      -0.36414980       0.08121551       3.15027929
Ar      24.46568240       0.88821226      12.53770692      -1.34597525       0.43682660      -0.27385074      -0.09364130
Ar       3.21477460      29.75790809       4.88557070       1.34597525      -1.29241702       0.97392988      -0.58904503
Ar      12.12923912      23.16205157      20.00711337       1.34597525      -0.83241354       1.56763358      -0.09840389
Ar       1.12141911       8.45830821      19.58869588      -1.34597525      -1.42400465       0.95875667      -1.82205602
Ar      24.97990884       0.34458846      18.21401620       1.34597525      -1.81234423      -1.46328784       0.14260191
Ar      27.63365225      35.14619832      13.61268501       1.34597525      -0.69455204       1.14029395       1.24967062
Ar       2.84321681      32.08563114      14.35519950       1.34597525       0.17908208      -1.88675247       1.00900247
Ar      13.38075725      19.22840981       2.78212921      -1.34597525      -1.49244142      -0.91846205       1.33532014
Ar      15.16258191      18.62202622      34.77459281      -1.34597525      -0.97063897      -1.46269994       1.80482217
Ar      13.40852818      34.76311258      15.10539492      -1.34597525       1.28447109       1.45710601       0.93657746
Ar       4.62125422      12.23233680       9.47871891       1.34597525      -0.92107960       1.37109447       0.51179420
Ar       3.64561453      20.32659046      22.72930286      -1.34597525      -1.45677295       0.15962772      -0.37795692
Ar       7.76761456       4.63707705      20.88786161       1.34597525      -0.55988759      -0.79066299      -2.11912973
Ar       0.19493042      15.69537471      10.38348309      -1.34597525       1.22658399      -1.41286066       0.88122827
Ar      12.51745893      19.55141782      16.98861058      -1.34597525       0.42088408       0.59399546       0.24888890
Ar      31.05904134       3.65371364      17.89936663      -1.34597525      -0.67729656      -0.99093985       0.30494256
Ar      24.86363627      24.67660972       0.63393500      -1.34597525       1.76389793      -0.08994428       0.49721957
Ar      34.41422500      22.32876948       9.49481316       1.34597525      -0.29595182      -0.93457272      -1.19739604
Ar      11.55598145       1.97619588      25.58590724       1.34597525      -0.01149677      -0.85455409      -1.14974999
Ar      23.51236442       8.42932166      13.63066632       1.34597525       0.46289240       0.26750694       2.04384497
Ar      18.75137135       5.72652086      10.21020743       1.34597525       1.47981365      -0.12233841      -1.11216392
Ar      21.56045889      23.05288521      17.00557679       1.34597525       0.86115925      -0.50959487       0.05156788
Ar      27.12721100      12.91414436      18.24332280      -1.34597525      -1.40392166      -0.32277538      -0.96351793
Ar       5.98352624       9.42842985      25.67230960       1.34597525       0.26162270       1.61436218      -1.69322730
Ar      10.58238273      10.73877911      13.75009290       1.34597525       0.48565598       1.29449781       1.06488832
Ar      12.36587957      17.60593404      27.76108429      -1.34597525      -0.03058374      -1.58656014       0.29890473
Ar      29.87214785       8.97436643      11.45954978      -1.34597525      -2.16024307      -0.82774644      -0.29067275
Ar      20.88492681      20.98528240       9.44275209       1.34597525      -0.67959465      -0.41062661      -2.07106034
Ar       8.97975396       4.98886371      17.50100673      -1.34597525      -0.05235060      -1.21175942       0.13494003
Ar      13.59079218       2.40946004      10.06380341       1.34597525      -0.78370862      -0.56510254      -0.36892703
Ar      11.17405660      12.93659533      33.71797751      -1.34597525       1.19183711      -1.22935018      -0.66253362
Ar       0.46465693      22.47196590       2.57734564       1.34597525      -0.23195104       1.31350081       0.08471584
Ar      22.16866209      25.72004108       2.76582957       1.34597525      -0.17706585      -0.48794180       2.28280416
Ar      24.59231176      13.98982510      34.04818082       1.34597525      -0.07995909       0.90951492       1.11056270
Ar      12.17648860      10.63408188      18.84427169       1.34597525       1.04921078      -0.59532605       0.02673746
Ar      18.92175192      29.14672762      16.43521349      -1.34597525      -0.49340247      -2.44263317      -1.37680457
Ar      22.24646421      21.30422168      34.17165933       1.34597525      -0.29049894       1.68311523       1.34870697
Ar      12.40303304      28.36606799      14.29231869       1.34597525      -0.57850395      -1.09604168       1.64033777
Ar      35.08369982       5.88687701      27.96945637       1.34597525       1.19599596      -1.68755661      -0.93240356
Ar      15.29463213      19.11835665      10.11535311       1.34597525      -0.41359063       0.11242598      -1.12662372
Ar      33.59714504      20.50168205      25.94541306      -1.34597525      -1.30656117       2.63587577      -2.31262348
Ar      17.04350265       6.61032421      33.39681537      -1.34597525       0.78297773      -2.00355613      -0.50145924
Ar      10.37888439      28.97617013      21.57817972      -1.34597525       0.38900634      -0.38021206      -0.04196734
Ar       1.94692057       6.57438381      17.46554908       1.34597525      -0.09982839      -0.55969632       1.07556919
Ar       1.50895194      28.86550552      13.75064868      -1.34597525      -0.20663532       0.00920686       0.23046899
Ar       1.66248800       8.75853459      28.44514462       1.34597525      -1.69799369      -0.65462432      -0.88162278
Ar      30.97787382      29.81636049      10.77959120      -1.34597525       1.29728887       0.72465124      -0.93962256
Ar       6.48905253       4.77097818      14.82715663       1.34597525       1.60636769      -0.92383878       0.07310467
Ar      20.27879644      24.35910101      28.52729942       1.34597525      -1.31045683       1.07460911       0.47843298
Ar      15.35824977       5.72923308      10.03383194      -1.34597525      -0.70734191      -1.27989403      -1.83337587
Ar       8.50176575       1.21742412      33.05327055      -1.34597525      -1.11030834      -0.12267835      -0.52704294
Ar      17.19554367       3.07858171      32.93896269       1.34597525      -1.37349020      -1.31492460      -1.85390519
Ar      25.58226792      21.09527428      11.13587582      -1.34597525      -1.23537141       0.66806358       0.58012380
Ar      21.68309713      27.94736374       5.45913214      -1.34597525       1.01149008      -2.03199669       0.07021818
Ar       6.77767704      25.43742632      34.43033565      -1.34597525      -0.64806443       2.51420286       0.01494604
Ar      23.01771252      33.21193234      18.31987449      -1.34597525       1.95649601      -1.81244675       0.58202056
Ar       8.71983950      20.50005494      27.67694258      -1.34597525      -1.31597128       1.58047951      -1.11094685
Ar      18.06995491       9.55311424      23.14841861      -1.34597525      -0.54410046      -0.69434039      -0.32803113
Ar      26.25587348      25.45601166       4.55930821      -1.34597525      -0.50187204       0.85505007      -0.11242388
Ar       8.32739280      17.41576135      25.72670795       1.34597525      -0.47124365      -0.03263399       0.98774188
Ar      26.18330388      18.01243789      24.26122479      -1.34597525      -0.83214417       1.04282523      -1.06898831
Ar       3.04695676      24.07239758      16.47516736       1.34597525      -0.22413095       0.01689131       0.63197672
Ar      31.40696335      13.70894648      23.97670461       1.34597525       1.27159032       0.01768653       0.68964841
Ar       3.30224490      27.48118985      10.67435070       1.34597525       0.91247452      -2.72746364       0.01443029
Ar      10.98148174      25.68682244      22.05032151       1.34597525      -0.06291828       0.28012018       0.56089465
Ar       8.57219691      34.14252454      11.16943318      -1.34597525      -0.04568497       0.55232349       1.27547306
Ar       0.48018481       7.77969520       0.71729486      -1.34597525       0.37157936       1.30656387      -0.33214913
Ar      17.48739371       2.12222063      23.32164765       1.34597525      -1.37377480       0.89967614       0.58101514
Ar      21.65467322      28.93906946      24.87572730       1.34597525       2.32271445      -1.12801387       3.07251686
Ar      22.22386922       6.66878065      28.43368785      -1.34597525       2.10516904       0.52172776      -0.71577501
Ar      15.37221423      21.38358519       1.62486864       1.34597525       0.27303870       0.86886084      -0.85689103
Ar      27.09194185       9.92602573      20.65895261       1.34597525       1.17878261       0.70258816       1.21738042
Ar      33.63702853       2.74751755       6.80141646      -1.34597525       0.87521461      -0.83530988      -0.17869936
Ar      24.74599040      33.26877767      15.15331194       1.34597525      -1.45013310       3.21824682       2.28470728
Ar       8.99643249      26.68329562      29.06142232       1.34597525       0.16136076       0.60085131       1.24720729
Ar      23.50708965      32.10561971      32.07486711       1.34597525       0.26057180       0.81841993       0.39669100
Ar      13.08927059       8.62158254      25.74603306      -1.34597525       0.42738863       0.18557220       0.42936829
Ar      29.14991821      13.30045905      12.09446309       1.34597525       0.98277540       2.11300625       0.46467236
Ar       2.76490501       1.11071002      17.94063092      -1.34597525      -0.68670453      -0.52067075       1.43223821
Ar      34.95155128      21.05730897       5.65559278      -1.34597525      -0.47077710      -0.62327348      -1.22511321
Ar       2.64623279      32.83143583       2.48276229      -1.34597525       1.92859084      -0.69397184      -1.37748300
Ar      24.80006814      21.79217419      16.21294666      -1.34597525       0.65427490       0.05009898       0.58584754
Ar      27.96229479       3.62335806      16.17555537       1.34597525       0.69506941      -1.34505450      -1.62314981
Ar       4.55068915      33.92694204      33.62522372      -1.34597525      -1.17272546      -1.98290004      -0.04225723
Ar       8.62074857       1.26668707       4.02780248      -1.34597525       0.13005066      -1.65262421      -0.60462935
Ar       3.42909737      22.63715537      10.89679693       1.34597525      -0.60237706       2.44249395       0.56415982
Ar       6.02452163      26.34113294      10.23240911      -1.34597525       0.71895163       0.29673360       0.57179845
Ar      18.37499278      26.54079717      30.62907913      -1.34597525      -0.11072032      -0.45719206       0.21879243
Ar      28.35947071      22.11837768       3.64208658       1.34597525      -0.90359714      -0.67924903      -1.11385798
Ar      32.53987890      31.49404868      28.24474779       1.34597525       0.19085004      -0.89898933       0.01121431
Ar       2.10185527      24.53539058      20.39297237      -1.34597525       1.95826860       0.49660670      -0.00789009
Ar       5.91095721      12.33036661      17.87892502       1.34597525      -1.34399726       0.28915769      -0.93313189
Ar      30.47695196       4.23358272       4.84255924       1.34597525       0.43022073      -0.44115747      -1.53085141
Ar      27.54873251      19.62275128      29.39718016      -1.34597525      -0.03785596       1.82403197       1.09767078
Ar      14.95376575      20.76017166      23.71039068      -1.34597525      -0.34617006       1.43413157       1.24179700
Ar       6.50449552      19.65677038      18.82579675      -1.34597525      -0.20578488       0.70977710      -0.85040296
Ar       4.73352191       8.76481577      17.14322210      -1.34597525       0.90470873       0.13818324       1.55349079
Ar      12.78588490      18.51341051       7.52351317      -1.34597525       1.13832566       0.62776775       1.25890312
Ar      21.57216624       1.35710908      17.30716557      -1.34597525      -0.15735441       0.81194856      -0.31213733
Ar      26.43591164      11.54191927      32.77370179      -1.34597525      -1.03549920       1.14363148      -0.96017325
Ar      20.65423483      26.46639250      21.67156979       1.34597525      -1.17138448       0.40170297       1.61562516
Ar      19.98620340       9.05036080       5.88827390       1.34597525       0.57409559      -1.06849071       0.75297721
Ar      33.85723233       8.82434346      33.16762124       1.34597525      -1.43406547      -0.21910432      -1.13125176
Ar       4.26754922      34.35488261      22.79264167       1.34597525       2.08554733      -1.77639930       0.19743047
Ar      25.85844312       5.41760236       5.92395999       1.34597525       1.86865786      -0.12147103       0.14917197
Ar      18.70824484      16.29351626       0.35742731      -1.34597525       2.18132660      -0.52171771      -0.60478428
Ar       6.58528937       7.02333829      22.83173333      -1.34597525       1.15195550       0.64612796       0.47634197
Ar      21.03860566      34.38145036      15.00236530       1.34597525       0.80683074       0.56219790       0.46891187
Ar      33.45521267      30.14085686       7.97928843      -1.34597525      -0.83456224      -0.39287076       0.07122359
Ar      16.66791686      24.76329132       3.04615094       1.34597525      -0.23352645       1.05745698       0.49287655
Ar      20.24930673      24.39943782      11.35965022      -1.34597525       1.87044810       1.29240618      -0.97263432
Ar       3.16208926       6.16442510      34.39173291       1.34597525      -0.01315456      -2.13577502      -0.23559321
Ar      21.57886813       6.83133757       3.74906231       1.34597525       2.30788419       0.32777833       0.02456265
Ar      25.35773044      27.76753157       0.49752906       1.34597525      -0.16759003       0.74842071       0.76170518
Ar      20.65229496       1.04223568       5.99460986      -1.34597525       0.13727430      -0.83461040      -0.70005049
Ar      34.65036950       3.60691571       3.99909215       1.34597525       2.14587832       0.07845803      -0.31344409
Ar       1.76883127      10.29544870      31.36440109      -1.34597525       0.94967614      -1.27981201      -1.01303881
Ar      17.54092536       2.14448658      26.38688693      -1.34597525      -0.06817148       0.95207046       0.78996220
Ar      27.31649143      32.63754197      30.47054309       1.34597525       0.86596365       0.06912719      -1.83793822
Ar      11.40556154      21.51412237       8.23768402      -1.34597525      -0.78850328       0.47781619       1.54426593
Ar       7.40868495      32.87292058      29.82934539      -1.34597525      -0.11528738       1.35831108       0.96769145
Ar      22.81578129       9.98931136       8.46628596       1.34597525      -0.79848087      -0.67073653       1.15859576
Ar      19.84802195      14.98565791      32.87728893       1.34597525      -0.30266041       0.08161826      -0.62692666
Ar       4.71257243      15.11754798      35.31178365       1.34597525      -0.20894465       0.12640615      -0.59601146
Ar      19.72986851       9.94382689      30.67445353      -1.34597525      -0.12056348      -1.12233168      -1.54749810
Ar      22.44203844      27.90480475      12.69449144       1.34597525      -1.20443585       1.09428310      -0.14772023
Ar       5.97641872      26.13528487      29.32276693      -1.34597525      -0.43253081      -0.15671202       1.67132589
Ar       6.25130685      31.66003313      22.46724984      -1.34597525       1.99181103      -0.67187902      -1.48526804
Ar      17.21366648      22.70920354      29.20264661      -1.34597525       1.94219071       2.02743701      -0.69927477
Ar      31.67207350      27.25423459      12.74096709      -1.34597525      -0.46686058      -1.69226579      -0.51153468
Ar      34.68494926       0.98633062       0.68506906       1.34597525       1.15056573      -1.37192455       0.90405982
Ar      34.53170205      14.70796111      31.89205020       1.34597525       2.00590042      -2.12947357      -1.26672710
Ar      11.46482736      22.28086467      23.17411799      -1.34597525       0.61805346      -0.09330770      -0.45008302
Ar      34.00884534       0.78980388      28.80546518       1.34597525      -0.77096819       1.69210529       0.17435036
Ar      13.97268100      23.61418678      30.61979081       1.34597525      -2.22451464       1.58353290      -0.73248976
Ar      32.54942017      17.78783365      17.72048278      -1.34597525      -0.00878164       1.09374148      -0.14056619
Ar      25.87511605       7.39059755       9.23747981      -1.34597525       1.23841260      -0.85441971       0.15170664
Ar      27.83475012       4.46673700       0.86845855      -1.34597525      -0.67919671      -0.55099458       0.09030308
Ar      27.57305361      21.00191189       7.34039753      -1.34597525      -1.33807062      -0.29625626       0.30787020
Ar      27.94388804      29.77397189      32.62278316      -1.34597525       2.44925945      -0.80077752       1.38313491
Ar       3.36456082       0.70654772       4.25015489      -1.34597525      -0.41511517       1.12387079      -0.76237677
Ar      16.14666313      12.63580464      24.19878813      -1.34597525      -1.98053613      -1.16108243       1.45414811
Ar      25.18141521      28.55908013      21.69255884       1.34597525       0.84635892       1.67955389       1.48109498
Ar       9.25087710      24.47378220      24.77292160      -1.34597525       0.56646594      -1.54713191       0.34123226
Ar      22.54853947      30.75799869      21.30156024      -1.34597525       1.18086111       0.94208440      -1.42787238
Ar      30.06882395      24.00531201      17.08763334      -1.34597525      -0.85946577      -1.27595024      -1.07910357
Ar      28.55660443      25.61065809      27.95453637      -1.34597525      -1.32353753       0.60069825       0.58411338
Ar       6.35928076      34.81859135      14.94619260       1.34597525      -0.11306524      -0.60795124      -2.47240504
Ar      30.44026275      34.14692718       2.97319590       1.34597525       0.07185862       1.89242992       0.19999445
Ar      26.13447587      34.85251543      32.98322170      -1.34597525      -0.20934359       2.23388484       1.04336034
Ar      12.54717443      24.41077969      11.10758449       1.34597525      -2.15920883       0.70087877       0.29693237
Ar       0.24656774      24.28164116       6.42060640       1.34597525       2.05983965       1.33764726      -0.73106588
Ar      25.90930006      29.09483328      30.44315176       1.34597525      -0.57670873      -1.63914188       0.51615290
Ar      30.89856810       6.31446057       7.42672439      -1.34597525      -0.38525996      -2.55058804      -0.30713769
Ar      12.15157514      32.71812164      17.48083315       1.34597525      -1.13222842      -0.52216323       1.09867197
Ar      23.40549326      11.97273334      18.04018725       1.34597525      -2.54618424       0.06356065      -1.01471585
Ar      24.66957706      26.52770989      24.14542419      -1.34597525      -1.05272419       0.97635972       1.12106064
Ar      28.27374106       9.76237112       8.75165100       1.34597525       0.10416254       0.04862098       1.07964533
Ar       7.47283985      14.87090722       2.78030820      -1.34597525       0.45259642      -1.52822167      -0.76039151
Ar      10.18623044       9.40873582       0.45178410      -1.34597525       0.12547071       0.29297905      -0.22429893
Ar      30.87407063      23.23423399      20.09563602      -1.34597525       0.48171815      -1.28709848       0.56143251
Ar       1.60578519      33.06741110      23.72440386      -1.34597525      -0.07389295       0.18102053      -2.53951904
Ar       9.47837896      31.97056095      22.21069768       1.34597525       0.40536601       1.04878088      -2.02838799
Ar      24.07686567      19.78199918       7.45101052       1.34597525       1.37304307       1.02960707      -0.36917183
Ar      19.66427747      10.08903561      18.61430254      -1.34597525       0.26226695      -0.65433290       1.91079244
Ar       1.47213094      16.53411996      27.26516070      -1.34597525       1.86007544       1.46148427       2.00360240
Ar      11.02489630      33.42723256      25.07703388      -1.34597525       2.07767004      -0.05872348      -1.34608509
Ar       3.19106146      22.85400405       4.94981775      -1.34597525      -1.04457728       0.91984637      -0.60821920
Ar       3.56934880       7.27539111      21.88893749       1.34597525       0.33050534      -0.82660758      -0.30580374
Ar      19.55206003       5.90120351      24.15332887      -1.34597525      -0.00138190      -0.27216976      -0.84427050
Ar      30.56762443      15.71003852       4.94189425      -1.34597525      -0.20843886       0.54810853      -1.63483387
Ar      28.93797525      23.66911889      30.63074780       1.34597525      -1.39963699       0.15799759       0.94374363
Ar      13.90053355      12.40318041      14.36850452       1.34597525      -0.17522028      -0.47776534      -0.37660231
Ar      31.76255367       7.21500087      26.55631996      -1.34597525       0.30882995      -1.22834883      -0.37881670
Ar      14.20733090      27.33057658      23.38661357      -1.34597525       2.45227608      -0.08742990      -0.04353776
Ar       0.05141433      18.77343492       1.60908017      -1.34597525       0.87998489      -0.49787493       0.85478236
Ar      28.43134511      26.72707542      22.11751114      -1.34597525      -1.26155600      -1.24953377       0.24292752
Ar       3.62202991      34.28208408      12.23357169      -1.34597525      -0.42387302       1.39852737       1.03685411
Ar       4.74768915      17.32194411       2.34976093      -1.34597525       0.14875454      -0.45860567       1.33392760
Ar       6.19769889      21.76460024      33.35935285      -1.34597525       0.65356040       0.08602622       0.53658728
Ar      18.38679190      15.10752596      20.81939924      -1.34597525       1.48923247      -2.92549701       1.25391227
Ar      11.68599384       6.48553618      27.44395595       1.34597525       0.25102899       0.22716105       0.12521570
Ar      24.63255591      26.36414166       7.36428412       1.34597525      -0.17844585      -1.38718780       0.53720810
Ar      34.04870680      25.92311596      35.16771737       1.34597525       0.98928777      -0.09820599       1.39556710
Ar       3.17976147      23.03145957      32.66711661       1.34597525       1.26119376      -0.68434960       1.53870744
Ar       8.10219485      10.05112477      33.04271010       1.34597525      -1.84261368      -0.17698021       0.32981599
Ar      28.79306767      34.49384886       5.56066582      -1.34597525       0.51301346      -0.56390555      -0.08899264
Ar      10.60727261      33.07206469       3.57908750       1.34597525       0.70677873       0.70156159      -0.53356117
Ar      16.18282702       3.33439310       4.34197170      -1.34597525      -0.65037522       0.19759939      -0.86716833
Ar       6.62385083      15.66959814      19.26131869      -1.34597525       0.93701064      -0.56590414       0.30764866
Ar      22.59827871      34.83156184      33.96710556      -1.34597525       0.38514115      -0.07397050      -0.30436994
Ar      17.82194657      13.69838392      18.02432716       1.34597525       0.55809931      -0.74112541      -0.51970242
Ar      18.68040135       6.42170913      14.96760390       1.34597525      -1.41227668      -0.92056389      -1.60365329
Ar       1.52533887       3.52366304       1.08449036      -1.34597525       1.49921693      -0.76664840       0.48581708
Ar      20.96392263       6.89738614      33.44192671      -1.34597525       1.89888635       1.33353143      -2.10417710
Ar       1.33185548      33.67618256      31.23335153       1.34597525       0.30502602      -0.07974434       1.08811769
Ar      16.29217308       9.30559413      31.24204469       1.34597525       1.15603535      -0.86151214      -0.31775053
Ar      13.37632544       8.79693203       6.24563327      -1.34597525       0.81598256      -0.10852897       0.66478109
Ar       8.47407626       9.59757986       6.97144511       1.34597525      -0.48025972      -1.38202324      -2.66314390
Ar      15.33179563      27.38608210      28.12187721       1.34597525      -1.45216725       0.51209909      -0.93239653
Ar       6.98643023      28.12541277      26.89150682      -1.34597525       1.20863690       0.59687684      -1.51916388
Ar      10.78911417      27.09084864      11.29420174      -1.34597525       1.50587804      -0.44675138      -0.10644169
Ar      10.48325937       2.26807209      20.24771751       1.34597525       1.22133363       0.98154279      -0.31329264
Ar      33.03376737      19.47965110       9.15333327      -1.34597525      -2.12268935       1.74837861      -0.40163809
Ar      24.64862657       6.45194116      30.89749840       1.34597525      -0.40517819       1.20109957      -1.89239357
Ar       7.12609448      33.78080754       4.35450142       1.34597525       1.20600321       1.66543233       0.76420346
Ar       0.22121753       3.44475975      29.68589915      -1.34597525       0.88131314      -0.35978573      -0.87123517
Ar      33.45790161       1.88234895      17.32720449       1.34597525      -0.28283519       0.82054421       1.96720587
Ar      23.48785360       7.64341062       6.44158589      -1.34597525       0.15734588       0.40866549       0.62933393
Ar      25.75754011      28.03351313      14.01830690      -1.34597525      -0.40643222      -0.01581856       0.35442180
Ar       6.49671402      31.07825626       2.51047032      -1.34597525       1.13026933       0.32148020       1.24056079
Ar       6.53674980      29.69115560      29.51800664       1.34597525      -1.98881235       0.96741790      -0.18330762
Ar      26.46107461       0.51615730       8.84724061       1.34597525       0.85675607      -0.14281364      -1.05885940
Ar      10.63544105       3.53718063      28.27730757      -1.34597525      -2.42727810       0.43969222      -0.51840094
Ar      13.04373535      19.34880562      31.32970100       1.34597525      -1.35309126      -0.05902733       1.56780566
Ar       8.67082699       6.88562122      33.47642642      -1.34597525      -0.75053019      -0.44902299      -1.06190834
Ar       9.93745700      14.66141930      28.01608569      -1.34597525      -2.27692159      -0.69255411       1.00459408
Ar      33.76733234      16.99853573      25.85111881       1.34597525      -0.18487355      -0.61578763      -0.94015254
Ar      22.93139196      16.15126364      15.12466694      -1.34597525      -0.91741655       1.88211066      -0.25712087
Ar       5.61118739      29.32856363      12.41520481      -1.34597525      -1.67460620      -1.28263934       1.06299000
Ar       1.46185419       5.08563921      12.37234342       1.34597525       1.51165054       0.51734273      -0.35644156
Ar       4.32141914      21.59084420      14.67053280       1.34597525      -0.71468313      -0.86607554       1.57539663
Ar       3.12522417       4.92736654      29.63479685       1.34597525      -1.17643498       0.47217828       1.14509640
Ar       6.66890332       1.78925101       7.78270590       1.34597525      -1.21085814      -0.67443053       0.36453095
Ar       8.12424925      31.49933454      12.87535664       1.34597525      -1.38196124       1.98877714       2.66556700
Ar       9.42192525       8.19959824      25.95625597      -1.34597525      -0.04807502      -1.08628384       0.08126677
Ar      15.80448420       1.70956320       1.44713640       1.34597525      -0.75102915       1.03787426      -0.22031366
Ar       7.77137905      13.61968826      12.53860408       1.34597525       0.07496483       0.21010906       0.31055270
Ar      29.13388913      13.54466398       3.03131229       1.34597525      -0.27828417       0.09355867      -0.52456633
Ar      30.85128852       8.90490117      35.11907068      -1.34597525      -0.06061712       0.51468222      -1.60030632
Ar      21.78358822      16.63766152       7.69008878       1.34597525       0.44700984      -0.03116104       0.60727847
Ar       6.67902564      33.85465494      19.84890221      -1.34597525      -0.49457395      -0.00226164      -1.55632907
Ar      22.58572185       2.98315511      26.94805096      -1.34597525      -1.99780412      -0.82571639      -0.44180801
Ar      16.29419940       5.13049909      23.04671226       1.34597525       1.21765411       1.64358034       0.27442613
Ar      25.01986117       4.60640034      27.08519284       1.34597525       0.03038396       0.61306737      -1.84862214
Ar       2.92869926       1.63340164      30.40116803      -1.34597525      -0.02027949       1.19311139       1.76349401
Ar      10.62126341      31.14346438      10.40686350      -1.34597525       0.48981525      -0.86016327      -0.52509558
Ar       8.26625526      12.31582184      24.42625622      -1.34597525       0.36915499       1.16563829      -2.04403564
Ar      13.65992003      19.46152524      14.00277555       1.34597525      -0.38019867      -1.79946955      -1.66223117
Ar       2.72276782      29.15532327      23.34136684      -1.34597525      -1.32951539      -1.13946688       0.54886240
Ar      16.55079552       5.47198476      29.62352079      -1.34597525      -0.76188687       0.26230399       0.31597863
Ar      16.31056551      14.30251288       1.49955931       1.34597525       0.06453513      -1.06877925       0.56735795
Ar      30.03297671      25.45609225      33.26673900      -1.34597525      -0.94700373       0.04951392      -1.19436661
Ar      30.44770600       2.61906786       2.22682105      -1.34597525       1.33070867       0.69739247       0.53130279
Ar      27.45586739      34.51180277      16.74845560      -1.34597525      -0.84596160       1.22285540       2.42265778
Ar       1.55249953       2.50677452      25.54582478      -1.34597525       0.14201407       0.55334520      -1.07257605
Ar      14.61643142       2.33708107      27.73929458       1.34597525       2.02537920       1.58198001      -1.84509402
Ar      20.36609385       6.07381403       7.04972162      -1.34597525      -1.06408097      -1.02997929       0.51560699
Ar      34.06237855      17.25718200      13.04990273      -1.34597525      -0.18633818      -0.36130120      -0.24758570
Ar       9.14847249      14.53525247      17.69365385       1.34597525       0.37009403       1.51129147      -1.30812602
Ar      14.23176122      33.99273438       0.25433241      -1.34597525      -0.02033905       2.80834906      -0.15975039
Ar      33.09010864      20.15354991      12.28227130       1.34597525      -0.21303934      -0.31619445      -1.08667395
Ar      32.54515036      34.02336535      10.36711504       1.34597525       0.34617176       1.35013398      -1.32567072
Ar       3.57707468      30.86823995      25.63078827       1.34597525       1.41385786      -1.63772677       0.11424478
Ar       9.04942131      19.60260649      13.74778372      -1.34597525      -1.30085710      -0.39913923       1.64860392
Ar      27.80919436      13.93979557      24.21186926       1.34597525       0.98949875       0.18250325       1.03112212
Ar      30.11179558      33.10456752      23.08438128      -1.34597525      -1.69991936      -1.35515686       0.28250840
Ar       6.14563712       2.40494668      23.63838844      -1.34597525      -0.48732385      -1.66777620       0.12663079
Ar      33.08349567      33.19485002      22.57258713       1.34597525       0.06821515      -1.84491652      -1.02791527
Ar       1.24762394      16.75927844      31.99271512      -1.34597525       1.71419220       1.64603726      -0.09412565
Ar       8.57646610      22.97875851       9.72688095       1.34597525      -0.68082997       0.61007816       1.20163134
Ar      23.79262142      29.79333939       8.17217566       1.34597525       0.29652990      -0.31218404      -0.43576069
Ar      18.99192125      21.86613697      13.28183716       1.34597525       0.32831126       0.71212750       0.78705560
Ar      24.00311738      10.67338373      21.22736997      -1.34597525       0.80129105       0.64537370      -2.15915532
Ar      33.50003096      16.86214623      34.55766697      -1.34597525      -0.60171166      -2.70882807       0.25743666
Ar       8.79687468       9.66464911      22.28329782       1.34597525      -0.93106459      -1.12822974       0.99569737
Ar       5.13768669      19.89565216      30.74969673       1.34597525       0.49720023       1.32461539       0.99212979
Ar      18.67496899       0.32331511       3.33312674      -1.34597525       1.21333656      -0.98783526       0.23456982
Ar      18.96446889      32.79361412      18.53026397       1.34597525      -0.38293380      -1.41921390       0.23992577
Ar       1.89605035      25.88026484      33.77259264      -1.34597525      -0.20320177       0.68758265      -0.04913856
Ar      28.58688427      11.47429685      15.35876191       1.34597525      -0.89892337       0.46780346       0.51451634
Ar      18.22515357      24.91331431      14.57166753      -1.34597525       0.40919124      -0.43474690      -0.62100958
Ar       9.68773580      32.41322691       0.74559092      -1.34597525       0.98129145      -0.21737948       0.36299667
Ar       7.16122053      10.89616209      14.45670578      -1.34597525       0.68492755      -0.00151830       0.45405787
Ar       0.34185333      12.36339233       3.05137216       1.34597525      -0.12928608      -0.38382882      -0.79859226
Ar      22.74094970       9.05363573      31.36282259       1.34597525       0.08665950       1.36286502       0.08873544
Ar      19.69020875      16.04294972      15.67697220       1.34597525       1.68906930      -1.95502740       2.17091245
Ar      33.39807474      33.63287975      32.83547191       1.34597525       0.00007139       0.68953411       0.71995001
Ar      29.60796456      27.88777403       0.30717322       1.34597525      -1.82183629      -1.51668852      -0.16618582
Ar      13.80759148      12.16057951       6.15262127       1.34597525      -0.52878798       0.51578634       2.09948241
Ar       5.60825760      11.32333571       6.40032590      -1.34597525       0.68250164      -0.58097834       1.54495102
Ar      33.85599184      15.55434675      20.74998824       1.34597525       2.21963320       1.04037443      -0.52506477
Ar      30.59491680      18.88563042      27.75870843       1.34597525       1.22176214       0.63339683       0.24236769
Ar      32.47920505      27.16129810       9.21299621       1.34597525      -1.11594115       1.05879322       0.87505205
Ar       3.22089492      18.67351446      14.45319580      -1.34597525       1.83346127      -0.69564746      -0.40447802
Ar      14.23236590      26.35656348       0.74955559       1.34597525      -0.67895212      -0.10335928       0.74578159
Ar      26.84860462       3.81140013      10.96520262       1.34597525       1.60574699      -1.47359649      -0.92950862
Ar      10.36003779      15.85525970       5.46270044       1.34597525      -0.04647893       1.09015696      -0.57933536
Ar      19.83396077      10.37016183      26.68793837       1.34597525       0.61437916       0.28310507       0.78561352
Ar       6.43887311      29.53374090      33.59744314      -1.34597525      -1.98787768       1.72510112       1.93262146
Ar       3.12015260      20.97677474       8.49349484      -1.34597525      -1.59787777       2.08738664       0.37636513
Ar      18.78512935      25.83002549      33.57502555       1.34597525       1.06584891       0.18497721      -0.51766486
Ar       3.00692384      18.38991954      35.24653306       1.34597525      -0.52468883      -3.44680523       0.97596387
Ar      13.34658687      10.31050936      33.75880170       1.34597525      -0.07305387       1.58605701      -1.78574832
Ar      22.03312652      33.31003260      24.98504508      -1.34597525       1.26058694       0.76069408      -1.50704025
Ar       1.81569331      18.89954323      20.27839326       1.34597525      -0.14178063       1.56844117      -0.26678068
Ar      11.07772143      24.87152958       0.00795092      -1.34597525       0.48865824       1.54405458      -0.11005892
Ar      18.26870376       0.40374815      34.42358988      -1.34597525      -2.88271612      -0.69525798      -0.60425588
Ar      16.33747917      11.35875700      20.03109110      -1.34597525      -0.61726263       0.22569729      -0.69170577
Ar       3.23277146      13.59842815       2.44495080      -1.34597525       0.30652229      -0.61788598       1.42864285
Ar      30.24837560      16.06215013      13.31298316      -1.34597525      -0.57990660      -0.56061730       1.27624865
Ar       9.15421810      17.87020077      20.61174072       1.34597525      -0.30796939      -0.29145056      -1.65520323
Ar      15.68985012      12.87393942       8.45601195      -1.34597525       0.55229469      -0.43136042      -0.09772060
Ar       3.98272481      10.58959448      14.02816944       1.34597525       0.69431128      -0.96174323       0.37249224
Ar       7.41897328      24.69647953       7.06748195      -1.34597525       0.66529048      -1.48841424       0.17713230
Ar      26.25388307       4.67670458      33.34493200      -1.34597525      -2.01671239      -1.30440563       0.99943116
Ar       0.66000725      31.58007815      28.32488751      -1.34597525       1.04135593       0.56024000      -0.75412474
Ar      27.31118607      11.45396519       1.69853636      -1.34597525      -0.16093627       0.37650668      -2.10173957
Ar      23.90555571       1.15445430       5.53966052       1.34597525       1.69213704      -1.36746034       0.42708485
Ar      33.52940863      13.19795297      17.65007373      -1.34597525       0.57112023       0.50258988      -0.85442138
Ar       0.88688269      25.73940145      23.22058546       1.34597525      -0.49884740      -1.32346353      -0.48855906
Ar      13.98431606       2.25922235      23.48673483      -1.34597525       0.91659727       0.00368629       0.55363733
Ar       0.52444507       9.84540102      23.54182210       1.34597525      -0.27388441      -2.20548363      -0.31426381
Ar      14.96557785       5.61855171      16.84361715      -1.34597525      -2.02997105      -0.50417767       0.34845468
Ar       1.88244389      13.34953484      33.22568787      -1.34597525       1.44925742       2.71373022      -3.37857889
Ar      31.48450391      25.07342355      27.31820268       1.34597525       1.54253513       0.56479761       1.44301767
Ar      34.79743572      18.23141754      29.29970940       1.34597525       0.03173634      -1.81341380       1.94304971
Ar       5.03721051      22.48720852      19.87108038       1.34597525      -0.57985842       0.29526207      -1.42850555
Ar      14.02418276       4.99055323      25.99405720      -1.34597525      -1.15076617      -2.26310481       2.23756017
Ar      12.28161997      15.08109769      26.14968201       1.34597525      -0.99902304      -3.34703645       0.63428034
Ar      33.96634184       5.84251151       7.15344807       1.34597525      -0.43576933       1.44768143       1.33698785
Ar      16.92414779      16.82338260      18.30617968      -1.34597525      -0.37084547      -1.42812022      -0.49355071
Ar       6.18483977      19.71869184       0.54814320       1.34597525       0.69836870       1.07444331       1.42275445
Ar      35.17223197      30.44889110       4.30599994      -1.34597525       1.41107320       1.01067123       0.33800691
Ar      26.98243595      23.30839161      34.13901585       1.34597525       0.03999811      -0.35347459       2.48284225
Ar      10.22772858      25.46664216      18.90820433      -1.34597525       2.17315403       0.30744418       2.68102895
Ar      14.46260250      21.38541018       6.41246390       1.34597525      -0.65178600       1.34125234       1.18555351
Ar      27.60781868      34.85137308       1.00840586      -1.34597525      -0.41616392      -1.04110141      -1.77025995
Ar       8.48516624       1.95000394      13.70253452      -1.34597525      -0.55278057      -1.27446440      -1.64308020
Ar       3.64978022       6.71213634      14.30636835      -1.34597525       0.66148685      -0.65176699      -0.77543118
Ar      34.65492586      12.03748250      34.99835250      -1.34597525      -0.48633235       1.13336061      -0.79274691
Ar       1.23333172      13.71470048       6.96778670      -1.34597525       0.88140921       2.49718291      -0.35079254
Ar      14.83716106      30.59910392      33.71982925       1.34597525       0.29177677      -0.83130524       0.25745432
Ar       0.30814407      31.12266600      19.90466078      -1.34597525       0.76997072      -0.83168958       0.27055761
Ar       2.15827350       3.22793033      33.03645441       1.34597525       0.53493840      -1.00856762      -0.17759153
Ar      30.44761369      21.85384368       9.46646091       1.34597525      -0.09519126       0.57314941      -0.77294344
Ar      32.51896032       7.83206813      20.02731476       1.34597525       0.74965659      -0.18215861      -0.32344263
Ar      15.50578628      27.80572386      12.97967416      -1.34597525       0.46699617       0.74030928       1.96166686
Ar       4.92237612       5.90624285       2.02239072      -1.34597525      -0.41338071      -0.85650158      -2.03595520
Ar      14.35509672      35.26247621      20.86656778       1.34597525      -2.03286403       2.06960408       0.19077550
Ar      31.47168618      25.47627549      22.23567547       1.34597525       0.90582176      -1.06241872      -0.73327493
Ar       0.16361353      13.87118871      22.80942608      -1.34597525      -0.34519618      -0.14276853       0.01924623
Ar      24.91372894      31.38206496      24.50566007       1.34597525       0.31422636      -0.24563561       1.46979122
Ar       0.03957752       3.77474196      19.56428511       1.34597525      -0.72702813      -0.44929305      -0.07888644
Ar      11.16468832      12.13150132       9.34061219       1.34597525       0.27504683      -2.03601364      -0.98976383
Ar      17.50265101       0.43186772      14.18612619       1.34597525       1.29163179      -0.11276367      -2.14152631
Ar       5.25546162       5.66106791      11.60580675       1.34597525      -2.39087319       0.99655094       0.49190112
Ar      16.72371665      11.43387662      27.26078988       1.34597525      -0.92959245       1.47759677      -0.75907128
Ar      24.00750195      34.24504393       3.23117467      -1.34597525      -0.09573776       0.03597493       2.18272697
Ar      13.77754375      28.70104676       4.99650894       1.34597525       0.74427108       1.86401114       0.08036787
Ar      10.01422817      27.73648181       7.46829532       1.34597525      -0.74008803       1.15560763       0.75317184
Ar      10.91184409      27.00056425      32.47355454       1.34597525      -1.09220179      -0.98633403      -1.40378199
Ar       5.29254209      26.40929025       3.57979693      -1.34597525       0.16536226      -1.11693858      -0.61357611
Ar      22.48819909      21.50933255       2.43739538       1.34597525      -0.37797019       0.17924434       0.03240764
Ar      34.78794028      24.37015822      15.35431616      -1.34597525      -0.27240175      -1.28258797      -0.42077718
Ar      18.58043222      28.50927444       2.74288435       1.34597525       1.23591462      -0.29283077       0.93473262
Ar      33.18128861      28.25566871      21.82094323      -1.34597525       0.66152751       0.42889627       0.10107597
Ar      16.67106690      32.77874883      10.75423655       1.34597525      -0.44773841      -0.67451021       1.18740562
Ar       4.65288809      33.79127351      26.63812229      -1.34597525      -0.80500335       1.01659413       0.35469067
Ar       5.15974154      17.39143573      32.84233482      -1.34597525       0.25997716       1.05115364      -0.63970174
Ar       6.66656644      28.79077025      23.50441315       1.34597525      -0.51125048      -0.23757980       1.25866783
Ar      21.49745463       0.19297698       1.29096312       1.34597525      -1.43229741       1.48178308       1.05092736
Ar      19.51499965      17.15222855      12.16835647       1.34597525       0.06335482       1.14496038       0.26767648
Ar      14.63879808      31.12193827      12.82407052      -1.34597525       0.37999832      -0.13232300       0.64223778
Ar      12.87911166      16.54955407       0.82744255       1.34597525       0.20931686      -1.11595117       0.39355207
Ar      10.01370423       3.62511001       1.99842505      -1.34597525      -0.69120019      -0.15740706      -0.67087905
Ar      16.74061051       7.91723977      19.33133256       1.34597525      -1.61636772      -0.05161850       3.40681028
Ar      23.78339793      24.02105420      29.80812166      -1.34597525       0.10075112      -1.79971655      -1.05379937
Ar       6.81331921      18.14066293      22.60783945      -1.34597525      -0.54217393      -0.50636484       0.23056983
Ar       9.65726170      22.72179889      13.01938203      -1.34597525       0.57732909      -0.67580973      -2.44388263
Ar      17.17860432      13.74316873      30.25756048      -1.34597525       0.31991537       1.28768289      -0.26056837
Ar      29.04842855      21.05051627      13.31512471      -1.34597525       0.84565339       1.39389349       0.88005154
Ar      28.97988133       2.17930197      34.41085809       1.34597525       0.60320227       0.00718746      -0.45483124
Ar       2.38836422       2.77900641      22.07721424      -1.34597525       1.27423268       1.72717956       0.71885473
Ar      33.02848565       4.76280887      31.22002031       1.34597525      -0.61598006      -0.70326899      -1.03623073
Ar       0.78420037      25.13747864       9.52448024      -1.34597525      -0.57654521      -0.94024959       1.11131915
Ar      25.23546075      11.05333621       6.52492647      -1.34597525      -1.49308679      -1.62747660       1.15953749
Ar       9.44187994       7.24669512      13.55739196      -1.34597525       0.86782357       0.54364722      -0.77162814
Ar      18.18782021      34.20938947      25.98051270      -1.34597525      -0.54287534      -1.20935942      -1.20767551
Ar      13.97797290      16.40636511      32.34886060      -1.34597525      -0.26690039      -0.52395469       0.93448103
Ar      21.47842641      27.20566446       9.07729606      -1.34597525      -1.18193315      -0.22301816      -0.33329339
Ar      21.57270726      32.04330595      27.85569185       1.34597525       0.85616248      -1.60367877       0.52725898
Ar      18.50766228      32.45908096      14.06834724      -1.34597525       0.93297487       0.31591998       0.25329192
Ar      19.22654633      11.99371968      20.96500940       1.34597525      -0.92912702       1.20539002       0.93908937
Ar      30.97594766      27.44175298      19.33079471       1.34597525      -1.62350560       0.29736361      -1.33588553
Ar      32.92118339      33.89032521      26.49375086      -1.34597525      -0.33178134      -0.32209676      -0.53806905
Ar      21.87087706      26.99637436       0.06065950      -1.34597525      -0.26341556      -0.30978498       0.17475745
Ar      15.67315041       8.90592586      15.87264039       1.34597525       0.14880486       1.81125413       0.00617372
Ar      10.77936352      11.90464153      30.08525049       1.34597525       1.40133190       0.35416203      -0.11823465
Ar      26.56154858      25.82978250      30.83119713      -1.34597525       1.42400756       2.87125779       0.79275781
Ar      31.56031815      12.29927677       9.65176433      -1.34597525       1.28041600      -0.57304742       1.95554347
Ar       1.65139323       5.15782097       5.72222458      -1.34597525       1.07455697      -1.22800706      -0.99814038
Ar      16.38739628       5.68557339       6.94765749       1.34597525      -0.21053155       0.65418947       1.13799466
Ar      18.91496888      22.76475450      33.45374596       1.34597525       0.16788841      -1.22180707      -2.87706938
Ar      13.51079811       2.44054975      13.75405072      -1.34597525       0.34625315       0.06871442      -0.12276397
Ar      19.84527905      21.15066422      27.59658901      -1.34597525       0.47920523       0.30944133      -0.44801076
Ar      27.00811611      29.37061944      27.03618825      -1.34597525      -1.02631612       2.02137682      -0.43822804
Ar      21.31752054       6.02673540      16.75513013      -1.34597525      -0.19845941      -1.47414571      -0.92362010
Ar      29.35763389      31.82938889      26.41961822       1.34597525      -2.07162389       2.27881997      -0.84262757
Ar      16.49832881      24.14915413      19.40904537       1.34597525      -0.26520089       0.27150878       0.56689007
Ar      25.09245321      20.12971304       0.65946849      -1.34597525       1.69733618       0.42034801       0.06183486
Ar      27.28020491       2.31349205       3.33487191       1.34597525      -0.97404080       0.81219276      -0.61628679
Ar      29.78191799      18.52253075       2.95720910      -1.34597525       0.85779530       0.78626711       0.60533286
Ar      22.82751742      16.33558738      22.52751392       1.34597525       0.12960471       0.87421752       0.13436002
Ar      12.26521570      14.88062989      30.39976270       1.34597525      -0.07215465       0.70974795      -0.83609200
Ar       3.66289043       2.87745426      13.11499820      -1.34597525       1.39950378      -1.70850733       0.24010748
Ar      29.03714030      25.03077733       6.44961537       1.34597525      -1.18729318       0.21623124      -2.74302371
Ar       1.36119049      18.37817508      11.42451307       1.34597525       2.54953196      -0.82081910      -0.04821046
Ar      22.37717505      16.83789703      34.87964870      -1.34597525       1.88916869      -1.09292415      -2.33480569
Ar       6.59654547       7.72278811      19.54433713       1.34597525      -1.66886439       1.12100606       0.80263070
Ar      13.31941091      34.82686723      27.44596945      -1.34597525       0.67448463      -0.62027768      -1.86819262
Ar       4.03187721      16.74880975      25.03301213       1.34597525      -0.00375360      -0.21448347       0.86775967
Ar       5.58401827       1.18807480      31.89605468       1.34597525       1.57204810       1.03280826       0.29076340
Ar       9.98060164      16.83263213      15.05921463       1.34597525       2.77745883       0.71935283      -0.30735934
Ar      19.36199187       1.34400407       9.05984721       1.34597525      -1.14664172       1.43104863      -1.52946536
Ar      18.07200310      20.24861125      10.69207080      -1.34597525       0.38770217      -0.54957331      -0.61148899
Ar      22.49455861      34.09677959      21.84152020       1.34597525      -0.40878744       0.60691774       0.44021608
Ar      32.91435480      13.43984249       6.12372030       1.34597525       0.17756270      -1.90230969       0.86257863
Ar      14.54207029      13.51857675      33.33152063       1.34597525       1.61360579      -0.03187022       1.23520509
Ar      26.50164873      15.37478375       1.75758982      -1.34597525      -2.17300980      -0.82749850       1.58912752
Ar      26.85951218      23.75736942      12.58453819       1.34597525       0.53026602       0.66636776      -0.03572556
Ar      32.96025274       7.26954351      16.94834997      -1.34597525      -1.10959827       2.48461566       0.77045183
Ar      12.09929128       6.77006693      34.73580630       1.34597525       0.23719843      -0.76614218       1.07046330
Ar      33.43426744       5.83706278       2.56781961      -1.34597525      -0.60803662       1.26135438       0.74805685
Ar      30.72499472       6.43100295      33.05206231      -1.34597525      -0.92924261      -0.46403968       3.08318946
Ar       2.22133477       7.57364485      25.00911514      -1.34597525       1.49407524       1.43651045      -0.56992340
Ar      25.12133017      31.58758477      11.03141540      -1.34597525       0.23179216      -0.44378233       0.89692206
Ar      32.81586164      29.70284422      35.08546327      -1.34597525       1.16434714      -0.82937812       0.88880249
Ar      24.14323130       6.55975924      17.31255328       1.34597525      -0.44553748      -0.30373742      -1.39657360
Ar       8.28201749       9.90393169      29.62295356      -1.34597525       1.07039393      -1.11642722      -0.24780897
Ar      32.53504846      24.55604901      11.06275755      -1.34597525       1.70791165       0.44383223       1.27632700
Ar      22.82470116       6.97727785      24.26384493       1.34597525      -0.48612465      -0.43113321      -1.55666533
Ar       8.32579036       1.02135880      26.50015070      -1.34597525      -0.16334281       0.26653563      -1.94312665
Ar      26.60459144      24.46336342      19.83396241       1.34597525       0.41271834       0.63804392       0.18056189
Ar      28.05156926       8.45735725      25.15636253       1.34597525      -0.20021832      -0.13611760       0.26660962
Ar      13.04155922       3.78319709       2.58416244       1.34597525      -0.24447643      -0.18850202       1.00651571
Ar       8.27891900       8.42365825      16.24950538       1.34597525      -0.54231448       0.30512471       0.24272062
Ar      16.50153455       1.69154755      30.23471792      -1.34597525       0.07940091      -1.14807890       0.50443374
Ar       3.44002319      28.09032762      18.87345976      -1.34597525       0.44921937      -1.34187560      -0.09622350
Ar      12.46395218      32.71002566      21.79476151      -1.34597525       1.41443829       1.41821796       0.51618364
Ar      27.25456467      31.32710696      21.02067379      -1.34597525      -0.15814822      -1.03292685       0.59914715
Ar      20.63505339       1.09432717      21.00769926      -1.34597525      -0.45723491      -1.59939423       2.06103659
Ar       2.72534640      25.52328676      28.28093810       1.34597525      -1.50917090       0.66515164       0.65245294
Ar       3.47018499      20.50088189      27.08042084       1.34597525       1.12216225       0.62232980      -0.50436051
Ar      10.43722303      16.19769602      23.53854392      -1.34597525      -1.09580910       1.29435826       2.29181557
Ar       2.80186503      12.20271612      28.41923132      -1.34597525      -0.54042290       1.25481457       1.74971414
Ar      16.47697003      13.00880719       4.35347288      -1.34597525       0.26175634      -1.80592321       1.40200182
Ar      13.66720285      13.62350559      11.50057969      -1.34597525       0.53105661       0.02550194       0.76825170
Ar      25.43843660      20.61795038      19.33925517       1.34597525       1.63207292       1.02264135      -0.28256476
Ar       4.68749791      26.60398224      32.22708792       1.34597525      -1.02835152      -1.63566135       0.44035908
Ar       1.39219913      28.65453067       1.49981871      -1.34597525      -2.64720753      -1.26397729      -0.30299401
Ar      31.76452406      20.60502648      18.36385399       1.34597525       0.17798051       0.31566828      -0.94399794
Ar      35.15624266      19.70231872      33.25075516       1.34597525      -0.23016107      -0.69793931       0.70184896
Ar      15.51131057      17.08980423       5.71388317       1.34597525       0.55579248      -1.39741367      -2.27058639
Ar      24.71458005      31.85760274      29.07893749      -1.34597525      -1.76492761       0.78651953       2.02477513
Ar       9.95085205      12.55116536       1.59258932       1.34597525       0.55360835      -0.05114567       1.19767834
Ar      29.02618355      27.86331748      24.81360301       1.34597525       1.09306319       0.10796427       0.79317130
Ar      27.05003626      33.78201580      24.82573433      -1.34597525       0.01738383      -0.66914562      -0.23866860
Ar      30.06053956       0.37376238      26.35162881       1.34597525       0.19486180       0.25129881       1.36869992
Ar      16.18413955       9.98267911       3.34493178       1.34597525      -0.50480855      -0.86133071       0.35151555
Ar      32.21147986      17.23730771      23.12899925      -1.34597525      -1.17165991      -0.71236080      -0.57949094
Ar      11.24763057      11.69335983      22.36200735      -1.34597525       0.80426088      -0.84611618       2.19488193
Ar      30.26067322       7.52525784      22.37610483      -1.34597525       0.24978017      -2.23909380       1.21984689
Ar      10.23582924       3.60787201       5.25999143       1.34597525       0.85736939       0.56620922      -1.46409677
Ar       3.00423459      24.78478252      13.46902044      -1.34597525      -0.52440311      -1.52327664      -0.79561659
Ar      25.56541101      15.33689372      30.76603751       1.34597525       0.41082738       0.57449603       0.17407828
Ar      24.68843337      29.21204949       4.97266623      -1.34597525      -1.21018226       0.27534904       1.44088417
Ar      22.74120854      15.34040259      19.51286670      -1.34597525      -0.93969980       0.09326680       0.13660253
Ar      15.48187126      29.30528391       2.21211839      -1.34597525       2.00909415      -1.12967901       0.21165886
Ar       0.64422386      20.67789282      23.65938464       1.34597525      -0.45064096       1.33971036      -0.79409172
Ar      35.22938546       8.89343745       8.17531244      -1.34597525      -0.90345890      -0.87650364       1.78138798
Ar      23.91644939      19.33415168      14.01032728       1.34597525       0.07670411       0.18269497      -1.15819065
Ar      28.57102631      15.55716495      32.82076771      -1.34597525       0.51463140      -1.28279506       3.60468357
Ar      34.73940816      15.82118362       4.26863113      -1.34597525       1.11329061       0.16965933      -1.44095701
Ar       3.44919593      27.11937235      25.47084196      -1.34597525       0.64232931       0.49075159       1.37371563
Ar      11.44762360       0.65309805      35.21245324       1.34597525       1.40792029       2.90360353      -1.47146842
Ar       1.72577977      16.24089050      18.83091042      -1.34597525       0.36314489       0.75797487      -2.29621745
Ar       7.55690444      25.77201474      13.46571025       1.34597525      -0.99376430       0.23308968       1.96928587
Ar      24.96246830       5.13142207      14.40359359      -1.34597525      -2.18664090       0.39063581      -3.00797803
Ar      21.44038875      11.79347353      15.27658577      -1.34597525      -0.75923965      -0.06570268      -1.11395963
Ar      18.40082610      29.98300595      10.45827955      -1.34597525       0.91254356       0.59559236       1.31583299
Ar      33.63588485      13.49492769      26.83391344      -1.34597525       0.39301384      -2.62884692       1.32028374
Ar       7.16482121      12.65945794      34.67561317      -1.34597525      -2.03420988       1.57048090      -0.45480820
Ar      29.05378043      27.97679912      14.60303708       1.34597525       2.44249928      -0.84296548       0.15848257
Ar      32.32828012      20.72052784      30.24603965      -1.34597525       1.65602368      -1.36535415      -0.73129179
Ar      20.28687668       3.48234454      19.00484855       1.34597525       0.45486629      -0.39183018      -0.98309619
Ar      20.51096724      15.72956724       4.83056247      -1.34597525      -0.92116462       0.22691735       0.62546846
Ar      28.06003025      30.69225169      11.42137213       1.34597525       0.41955828       1.57322139       0.90795226
Ar       4.90608005      14.99605957      11.17518460      -1.34597525       0.73439980      -0.90389316      -1.37846939
Ar       5.77814671      31.02986468      15.56479897      -1.34597525       1.64708201      -1.12296801       0.96297890
Ar      15.34337223       6.49445276       3.03289096       1.34597525      -0.44277814       1.58157928       2.05582385
Ar      10.53852989       3.80663416      33.02360216       1.34597525       0.62355785       0.54426037      -0.30402797
Ar       4.26523720      16.40904407      21.20543885       1.34597525       0.00858470      -2.26010805       0.54894837
Ar      31.56934976      29.49756673      26.14559512      -1.34597525       0.31427625       1.16151599      -0.35872302
Ar      30.94577345      32.50056845       7.55198568       1.34597525       1.95322299      -3.19149846       1.15793369
Ar      18.42116075      21.80476657      24.35061641       1.34597525      -0.47683694       0.85513245       2.03587472
Ar      33.22076326       0.23361841       3.44878787      -1.34597525      -0.48828867       1.80184513      -0.37582581
Ar      31.74852464       4.25001295      21.16841462       1.34597525      -0.43239383       2.20521555       0.70012804
Ar       4.09863018       4.98273155      24.13354370       1.34597525       0.46417768       0.43546236       1.81070364
Ar      31.37316600      35.28218865      30.04012971      -1.34597525      -2.50222296       0.51036135      -0.53531534
Ar      16.41328971      34.97333885      18.58839102      -1.34597525      -0.75138296      -0.04956856      -0.20834168
Ar      23.07843233      15.49560861      11.19971232       1.34597525      -1.04890854      -1.68348325      -1.05395645
Ar       2.19962062      10.39315661       6.52348608       1.34597525      -0.54253955      -1.77328695      -0.40098905
Ar      30.04613929      27.09434138      30.69213016       1.34597525       0.33040588      -1.60744385       0.86033970
Ar      16.12800656      24.26967214       8.20985260      -1.34597525      -1.06596421       0.36715646      -0.70296656
Ar       5.66626092       8.33829510       8.03553100      -1.34597525      -0.83384743       0.53983329      -1.63528666
Ar      29.66353747       5.37726689      12.56983279      -1.34597525       1.16712237      -0.82101668      -0.01672654
Ar       0.88733307      33.71717750      34.41061985      -1.34597525      -0.41362498      -0.77538298       1.86861084
Ar       5.38094450      31.18750476       8.91973270       1.34597525       1.45575261       2.68193524      -1.17698018
Ar      31.42482895      20.30825129       1.06544911       1.34597525      -2.05067832      -0.91114402       0.43931097
Ar      22.32715147       3.22903931      11.28122235       1.34597525      -0.20787359       1.96730526       1.01099716
Ar      17.62892484       8.33586786      27.97469380      -1.34597525      -1.21063924      -1.39838534      -2.20143579
Ar      29.64964008      11.93307115      34.71159368       1.34597525      -0.56517510      -0.45262932       1.22624113
Ar      13.44926824      29.03224328      10.95345813       1.34597525      -1.07703818       2.39290526      -1.07492619
Ar      32.08974236      12.41149345       2.85825591      -1.34597525       1.03860392      -0.59245712       0.78321153
Ar      16.48015514      18.20590196      13.96491009      -1.34597525       0.92721198       0.01553044       1.65351567
Ar       0.73648687      12.07577586      13.66055385      -1.34597525      -0.43996508      -1.51506977      -0.87708110
Ar      34.38336262      26.90230121      18.46002888      -1.34597525       0.42257259      -0.98072404       0.96328025
Ar      11.08026092      32.90121856      28.77651346       1.34597525      -1.09238987       1.33038374       0.62539122
Ar       1.65803309      20.60592558      29.79969920      -1.34597525       2.15732384      -2.04663750       0.46353285
Ar      22.02328182      19.25446043      20.81677467      -1.34597525      -0.14163124       1.10266962       0.05993005
Ar      11.19295592       6.53615140       4.88919730      -1.34597525      -1.03714293       1.31996712       0.80379878
Ar      23.18811748      25.01681859      14.23283106      -1.34597525      -0.59987225       0.07276132       0.90447799
Ar       8.16337338      13.94000742       7.57729956       1.34597525       0.30708710      -0.05171409       0.65479806
Ar      17.43706807       4.72051608      19.80671206      -1.34597525      -0.02140778      -1.09536130       1.93757741
Ar      25.83737260      25.33762107      16.78275324       1.34597525      -0.49921101      -0.04871723       0.32261525
Ar      26.21795706       6.64521132      22.57075618      -1.34597525       1.59768929       0.39897799      -1.38074828
Ar      27.73633732       3.17087359       6.70147299      -1.34597525      -0.63048221      -0.33696671      -0.18099705
Ar       6.34671203      23.52994034      16.18048358      -1.34597525      -0.64020113      -0.60204479       2.24751818
Ar       9.56495923      29.68742914      30.64971897      -1.34597525       1.12791023      -0.09660293       1.27151135
Ar      33.77297996      22.43472699       0.31124336      -1.34597525       1.49171846       0.66573467      -1.71050627
Ar      29.71034743      11.20031884      30.67628079      -1.34597525       1.01064247      -0.62123407       0.74087722
Ar      13.26829493       9.91071408      12.41637443      -1.34597525      -0.86610646       0.96039523       4.81766468
Ar      21.75823304      19.08383662       5.44587517      -1.34597525      -0.39892498      -0.28900761       0.76139703
Ar      19.33223823      33.38559989      30.88928458      -1.34597525       1.23586445       2.33326359       1.02041544
Ar       9.06501252      11.35394474      19.42921109      -1.34597525       1.73763232       1.27060672       0.74592754
Ar      16.97992284      31.57542845       7.29826719      -1.34597525       0.42405078      -0.52870222       0.34414220
Ar      31.77901109      22.81816502      32.73269226       1.34597525      -2.48090881      -1.64001514      -0.90191534
Ar       3.08289238      25.56145054       1.27532916       1.34597525      -0.39966974       0.02081257      -0.56093042
Ar       3.50013510      31.60776922      20.87574561       1.34597525      -2.84281592      -0.19696625       0.86202134
Ar       0.28995880      25.64380758      12.68004423       1.34597525      -1.66655771       0.28813395      -0.69377988
Ar      19.08696806      14.52677700      26.93104975      -1.34597525      -0.58948474      -0.04999122       2.59694705
Ar      19.91258659      13.80658773      12.69529377      -1.34597525      -0.03269631      -1.07527305      -0.39118121
Ar       4.82463040       4.90280032      19.60135874      -1.34597525      -0.32978806      -0.81997577      -0.10761569
Ar      21.51371463      16.12522219      30.06725688      -1.34597525      -0.93962488       0.47129872       0.37126744
Ar      11.51676234       7.23845142      23.36079049       1.34597525      -0.33804414       0.31996599       1.52515288
Ar      13.97089670      27.78586766      32.22688152      -1.34597525      -0.87124556      -0.54906024      -2.96415058
Ar       8.33382119       4.95844831      25.78577022       1.34597525       0.58059394      -0.40539127      -0.90364484
Ar      11.27865658       8.89777774       9.25980801      -1.34597525      -0.38317315       0.12378145      -0.85272125
Ar      11.56311603      19.50481495      25.34063705       1.34597525      -1.03407802      -1.43277663      -0.82227169
Ar       8.02170134      32.81366124      26.64545642       1.34597525      -0.52189748      -0.90452433      -0.26007532
Ar      29.61138299      32.36644520      34.35049626       1.34597525       0.13264223      -2.06802849      -0.63270788
Ar       9.80558387      30.02120810      27.20126408      -1.34597525      -0.58085549       0.86809538      -0.56328865
Ar      14.12888248      11.64977251      30.98820198      -1.34597525      -1.69527658      -0.79938575      -0.56379983
Ar      21.90837611      12.97129465       5.11594043       1.34597525       2.63673462      -0.07960064      -0.07455900
Ar      12.72352799      18.99127799      21.09530411       1.34597525      -2.56737978       2.13989599       0.51820656
Ar      22.67573878      30.07109606       2.47518998       1.34597525      -2.23033263      -0.20399528      -1.81325957
Ar      29.89959908      18.57211320      15.14289225       1.34597525      -0.44221980       0.04637712      -1.98221982
Ar      35.05463829      32.41899928      11.83412092      -1.34597525      -0.69236294       0.81670097      -0.60063324
Ar      25.23243023      32.61447703       0.08179406       1.34597525       1.01942197       0.31089310       1.62329470
Ar       3.76911734      24.01525072      23.41318074       1.34597525       0.43216761       1.25339595      -0.15114338
Ar      23.96748568      29.85790432      17.60874153       1.34597525      -0.54338323       0.56779741       1.39740374
Ar       0.83588435      15.34174100       0.27201327       1.34597525      -2.56892016      -0.25995113      -0.83959470
Ar      19.97633156       0.52833778      28.26751999       1.34597525      -1.54236467       0.57522240      -1.43562377
Ar       3.04914202       6.65216744       8.26400173       1.34597525      -0.74589459      -1.68908437       0.91580815
Ar      26.54028879      17.94961929      34.19697595       1.34597525       0.48182362       3.30930266       0.34390967
Ar      31.08052275      16.16508090       1.09437525       1.34597525       0.45923244       0.81950551      -0.50447819
Ar      16.72148939      20.75740898      32.25993420       1.34597525      -0.53140866      -0.53305558      -0.31848008
Ar      14.70429405      21.91374016      12.31655333      -1.34597525       0.59509606      -0.85528574      -0.93587374
Ar      15.88488240      32.06172457      30.34226546      -1.34597525      -0.27353590      -0.84710768       1.73251881
Ar       8.65383091      32.10741306      32.67119849       1.34597525       0.50689346       0.01286425      -0.22937756
Ar      11.53675693      32.82429869      12.79266247       1.34597525      -0.02844382      -1.16258211       1.29853536
Ar       4.96732510       1.69817288      20.77594818       1.34597525      -0.28391509      -0.48134402      -2.67851433
Ar      34.48000078       5.50570975      34.78339538       1.34597525       1.08671557       1.40912547       0.23336304
Ar      25.43948998      21.71398598      31.87224788      -1.34597525      -1.36485594       0.21533651       0.03662935
Ar      29.85481900       4.48174489      25.45986642       1.34597525       1.98005658      -0.78781966       0.14016446
Ar      13.67723549      12.40532105      27.50150067      -1.34597525      -1.15821779       1.74088284      -2.48047242
Ar       9.77377996      15.92072076      10.06014974      -1.34597525       1.29905791      -1.70223639       1.53385231
Ar      30.06743487       6.41514862      29.78995960       1.34597525       0.24986879      -0.27091112       1.24536442
Ar      29.80127118      16.40698341      25.33850048      -1.34597525      -0.53853493      -1.33084961       0.70221271
Ar       8.49349949      14.14070882      21.87953725       1.34597525      -2.44812603      -0.22982358      -1.00023494
Ar      25.60449640      13.87942917      20.85018810       1.34597525       0.10060398      -1.61619341      -0.77749582
Ar      22.69848208      12.44076720      27.16519965      -1.34597525       0.09158418       1.51685094       1.05038793
Ar       4.04810883       4.12847251       4.35048425       1.34597525       0.28114368      -0.49639572      -0.20837309
Ar      10.27211569      30.98688263       6.34373559      -1.34597525       0.63439155      -2.41289840       0.16484734
Ar      15.06828338      20.82033071      19.95958707      -1.34597525      -0.52182164       0.84910330      -0.09475897
Ar      22.02702883      28.68178517      28.09843253      -1.34597525       1.49497906      -0.81212460       1.01369240
Ar       7.39122076      18.06818570       4.34260195       1.34597525       1.33945940      -1.56692040      -0.91455872
Ar       7.75106305       3.91233201       9.78101210      -1.34597525      -1.13511909      -0.88791585       0.72687233
Ar       2.11026193      29.68322637       7.72459977      -1.34597525       0.02555515      -0.62698189      -0.22652625
Ar       6.03620352      12.08120097       3.30893894       1.34597525      -0.04817076       0.74960397       1.12034420
Ar      21.54711292      25.85698145      25.74192165      -1.34597525       0.91242268      -0.25764573      -0.41496887
Ar      23.38659321      18.54941090      10.68275212      -1.34597525       0.62040500       1.45219834       0.60537484
Ar      18.75325560      27.34541686      25.08526165       1.34597525      -1.52147950      -0.57491444      -0.94428473
Ar      22.87042174       3.98046625      32.55266314      -1.34597525       0.17877391       1.62064306      -0.49982968
Ar      10.06946040       4.27872442      23.04451176      -1.34597525       0.70286917       0.62922690      -1.92904049
Ar       9.82320575      26.75002402      15.09367745      -1.34597525       0.20853300       0.00863659      -2.74094071
Ar      33.85837556       2.53698023      24.21860703       1.34597525      -1.60409442      -2.29006322       0.93915412
Ar      20.88427723      28.11892258      32.05501511       1.34597525      -0.49571288       1.24086380      -1.91101529
Ar      11.83356290       9.58575840       3.83581487       1.34597525       0.58479062      -0.43355581       0.95146333
Ar      19.47800524      32.13453198       3.28863978      -1.34597525       0.64092513      -2.13352225      -0.83951180
Ar      23.42140340       5.78583004       0.19212637       1.34597525       0.17750133       2.11296639       0.99410258
Ar      27.80221362      17.92000375      12.58296748       1.34597525      -2.26552514      -0.36051943      -1.00736045
Ar       8.22808890       9.44799927       3.65834772      -1.34597525       0.65960243       0.41050566      -1.20965317
Ar      22.85426493       7.30387558       9.93570354       1.34597525       1.59381353      -2.74453884       0.16869046
Ar      20.29280126       1.28090948      24.40842530       1.34597525      -0.52300359       0.46590322       0.64379482
Ar      28.10148089       0.32701387      29.16235654      -1.34597525       0.06636813      -0.01597639      -1.30776490
Ar      32.27120435      33.39894797       0.49943004      -1.34597525      -0.43501771      -1.21118096       0.20035628
Ar      20.66734025       7.22642289      20.78100789       1.34597525      -2.20869341      -0.48503038       2.64145317
Ar      28.13073828      27.50017679      10.81077689       1.34597525      -0.42162478       0.09551959       0.49136124
Ar       1.25007660       0.90056930      15.07322036       1.34597525       0.15312565       1.25871415       1.02747217
Ar       0.11846840      20.78610271      15.22949411       1.34597525       0.17599446      -1.39719596       1.31028930
Ar      10.93522229      34.01868437      31.58586963      -1.34597525       1.68503441       1.13743313      -2.33862803
Ar      13.92880232      30.03359711      26.55265598      -1.34597525       0.34994508      -1.00075019      -0.68830398
Ar      25.76218416       2.44589481      22.26795051       1.34597525      -1.03631221      -0.05831249      -0.88067349
Ar      18.54050385       6.90847644       4.11691522      -1.34597525      -0.56736464      -0.95844609      -0.32183063
Ar       5.23917413      28.01456529      16.29204419       1.34597525       0.87770937      -0.44175015      -0.64872876
Ar      16.60795518      26.75707185      16.88970249       1.34597525       0.39696342       2.02485879       0.53468713
Ar      11.03375365      14.01436106      14.96464405      -1.34597525      -2.35595324      -2.16369058      -0.16224477
Ar      31.03149291      34.91571750      18.83374007      -1.34597525       1.00612751       0.97411804       2.15599090
Ar      28.24184716      21.27847507      16.30201380       1.34597525      -0.89139332      -1.33372059      -0.21629188
Ar      27.82001801      30.91550563       1.11388182      -1.34597525      -1.04721480      -3.43232248      -0.83811241
Ar       0.78110394      17.55888372       7.02968217       1.34597525      -0.04451617       2.15642480       0.09575186
Ar      13.28046987       6.68879672      13.04410812       1.34597525      -1.01022700       0.62884378      -0.62827139
Ar       5.68173145      21.66399400       6.51136005       1.34597525       1.35752775       1.05091149       1.40917248
Ar      21.43505001       6.18029034      12.82302130      -1.34597525      -1.99401784      -1.93918605      -3.72299861
Ar      31.12869155      34.15511632      14.94477167       1.34597525      -0.80980831       1.22822079       0.61963483
Ar      21.91413176      31.54576914      12.00900768       1.34597525       0.35990263       0.39219202       1.72123568
Ar      14.24766859       7.61646797      21.40429996      -1.34597525       0.78467196       1.40516269       0.91350122
Ar      32.17635031      29.08263192       3.72697570       1.34597525       0.63547209       0.80035620      -0.50313555
Ar       5.04372352      17.37210070      17.01079194       1.34597525       1.18664080       1.25616662       0.93037381
Ar      34.79895112      28.11608857       6.30218882       1.34597525      -1.63745424      -0.92515843       1.05695092
Ar      20.65006985       3.27587308       0.39322433      -1.34597525      -1.87801207       0.91114564       0.23620007
Ar      28.75396270      18.98147434      18.76955042      -1.34597525       1.48282370      -0.44936769       1.04956967
Ar      32.12563045       4.06583333      14.39879852       1.34597525      -1.05330233       0.11640642      -0.24776673
Ar      33.47873617      23.70973594      18.21645274       1.34597525      -2.36834686       0.43649738      -0.48581988
Ar      14.60899467      22.78798179      17.28927549      -1.34597525      -0.75418648      -0.34946260       1.15344631
Ar      14.39775971      12.96437428      17.51587298      -1.34597525      -0.47062386       0.09442105      -2.61476957
Ar      21.76951030      32.79188762       5.61529036       1.34597525       0.00678590      -1.21720782      -1.89950561
Ar      16.26613629       8.11309048      25.11555505       1.34597525      -2.40907063      -0.77368485       0.52802854
Ar      32.79158137      31.34275523      19.00313680       1.34597525       0.85384802       0.78449180      -1.41041671
Ar      13.64608378      33.04644323       5.27941438      -1.34597525      -0.10330842       0.05569679       0.08476885
Ar       6.22499007      20.21516126      10.68482596      -1.34597525      -2.21326240      -1.40128585      -0.73079962
Ar      23.97056324      25.29442368      32.81839414       1.34597525       1.52062772       1.36394249       0.11011230
Ar       4.57296385      11.71181407      32.29488119       1.34597525       0.10203822      -2.06931661       0.11215921
Ar      35.11021968      33.61547254      17.15701875      -1.34597525      -2.10273887      -1.02592155      -1.52663446
Ar       8.55876781      29.27394932       0.52780839       1.34597525       0.59324101       1.61827206      -0.96319959
Ar      24.76228921      14.09627584      23.96032899      -1.34597525      -0.51764837       2.33453950       1.45668673
Ar      30.42221032      15.47799988      16.89887058       1.34597525       0.14297955       0.71981495      -0.92561050
Ar      24.49336917      10.44501266      25.41452987       1.34597525      -0.45854833      -0.39107420      -1.35559568
Ar       1.35452847       0.55368545      11.24653713       1.34597525       0.65512091      -0.72227461       1.17715548
Ar      10.38366233      30.58943433      15.28812977      -1.34597525       0.90404069      -0.57461073      -0.59284732
Ar       0.85122368      34.60649491      20.46397724       1.34597525       0.73581467      -0.54978551       0.14248349
Ar      17.51849096      27.01825294       9.74767344       1.34597525      -0.81153536      -1.39498750      -0.69793384
Ar      23.17991193       0.34965812       9.58186929       1.34597525      -0.06664760      -1.03824867      -0.64007087
Ar      12.51973559       8.42539833      16.06553479      -1.34597525       0.51010409      -0.22366691      -2.09373469
Ar       1.45017756      13.81289706      25.79226102       1.34597525      -0.45431338      -0.44430679      -0.53228359
Ar      10.69560400       4.12170053      14.78129348       1.34597525       2.45392750       2.17607455      -1.13752698
Ar      18.71504873       3.18996095      15.95669281      -1.34597525      -0.59931072       1.05213368       0.69305364
Ar      10.66112275      11.89755428       6.01540794      -1.34597525       1.86613257       0.55414797      -0.99705560
Ar       7.28420100       8.65167594       0.92355816       1.34597525      -2.94864608       1.06908605      -0.68831034
Ar      18.49303201       5.80889789       1.31535744       1.34597525      -2.73948205       0.51120364       0.50575162
Ar      16.51402301      18.57585863      29.75445209      -1.34597525       0.06929441       1.62345468       0.65314555
Ar       7.26760170      28.12639304      19.18038830      -1.34597525      -1.24338294      -1.16502495      -1.21228473
Ar      24.32742254       3.63337462       3.42711261      -1.34597525      -1.35371477       0.36471383      -1.37983498
Ar       1.27620630      17.33381662      23.42489865      -1.34597525       0.78507275       0.53763238      -0.89257884
Ar      19.12553735       3.11435603      12.14866488      -1.34597525       1.13234921      -0.76296830      -0.30511594
Ar      24.56554514      17.15212254      28.45928653      -1.34597525       1.19902694      -0.51833600       0.71856283
Ar      24.23741129       2.89516174       8.28320439      -1.34597525      -0.20727948       0.56114325       1.77140991
Ar      12.51720570      25.65143704      16.61484974       1.34597525       0.24842956       2.54034760      -0.19638128
Ar       1.00577542      27.47887869      20.71882062       1.34597525       0.52729159       1.64308880       0.29820525
Ar      21.50595839      21.63862940      30.11689027       1.34597525       1.74010546       0.35188395       0.89213741
Ar      14.94478756       4.57530033       0.43031394      -1.34597525       1.02857636      -0.36890686       1.02548038
Ar      14.76849293      24.07125349      22.63067053       1.34597525       1.58197160      -1.08772908      -0.24442894
Ar      22.23546145      22.88338311      22.38769791       1.34597525      -0.26543006      -0.09859329      -1.98163537
Ar      34.58553386      11.63334780      29.45139625       1.34597525       0.52082998       0.97637673      -1.74996993
Ar      30.35486083       6.38364038       1.25559864       1.34597525      -0.31009212       1.19945781       2.42009575
Ar      25.89258785      10.79310879      11.83379723      -1.34597525       1.79345572      -3.58004689      -1.02805675
Ar      29.39908089      20.11685683      33.53925993      -1.34597525       2.44682144       1.46948846       0.67451117
Ar       6.67600047      13.74543074      26.94885006       1.34597525      -1.43336741       0.45834242      -1.52151510
Ar      27.30159060      14.94369528      14.33757761      -1.34597525      -0.88070313       2.34038233      -0.19626309
Ar       5.76173222      11.62213712      20.91607539      -1.34597525       1.43062590      -0.05217722       0.86139300
Ar       8.78738210      35.17095473      23.08887205       1.34597525       0.25077449       1.01052729       0.87857769
Ar      31.83516355       3.65142108      27.91586365      -1.34597525       0.29930341      -1.77867114      -0.22427896
Ar      34.91852074      31.68591837       1.15715869       1.34597525      -0.81877619      -1.20487566      -1.02567777
Ar      30.86956377      30.17143368      22.21075932       1.34597525       0.33590026       1.09991423      -1.41240515
Ar      16.64067911      10.86196027      13.85252164      -1.34597525      -0.23349550       0.60448158      -0.21797607
Ar      31.84315403      24.60662200       3.50455701       1.34597525      -0.40010896       1.13509419       1.34844175
Ar      12.81841028      29.80314284      29.56708623       1.34597525       0.64839492       2.04443403       1.03251121
Ar      16.17210245      31.42059975      16.05387803       1.34597525      -0.64252485      -0.62991073       0.22240877
Ar       5.25703623      25.49421302      18.85868750       1.34597525      -1.24467357      -0.98442516       0.31919780
Ar      14.57754752      34.28476668      32.31609076       1.34597525      -0.26051321       0.71053038      -1.94949649
Ar      35.14168831      10.10965689      16.70077566       1.34597525       2.06701464      -1.66021813       1.54248195
Ar      17.77303709      24.73942128      23.32177903      -1.34597525       0.53336687       1.96210112       0.44029389
Ar       0.04028232       4.32770853      16.26925690      -1.34597525       0.94884436       1.32575738      -0.82938516
Ar       3.11984669       0.47236394       1.12874066       1.34597525       0.87884250      -0.47122222       1.00922823
Ar      12.46285007       6.56150752      18.79431550       1.34597525       1.39108883       1.40575908      -0.98838601
Ar      14.67567644      20.11983149      26.81202472       1.34597525       0.79956310      -0.64274833       1.12993464
Ar      33.82399583      28.24189503      29.10563872       1.34597525       1.63738212       0.91255455       0.43364897
Ar      26.30921900      22.76665749      28.74971174       1.34597525       0.90574110      -0.13023224       0.91436298
Ar      16.55287338       2.40897963       8.52614306      -1.34597525       0.36891919      -0.81096718      -0.05664920
Ar      11.87370544      15.74297810      19.81776705      -1.34597525      -1.27362569      -0.89971801       0.12921215
Ar      19.90242484      29.97212924       7.39431385       1.34597525       1.42267135      -0.98635785       0.05934733
Ar      16.12750304      32.74824710       3.13506327       1.34597525       0.24177740       0.79627480      -0.38594306
Ar      27.83949675      34.92087837      21.20597452       1.34597525      -0.90831812       0.50156188      -0.37136879
Ar       6.65934486      25.20526016      21.94962777      -1.34597525      -1.60302184      -0.92001463      -1.56783597
Ar      20.16691971      17.00295879      24.95191101      -1.34597525      -1.70863779       1.05884682       3.00636309
Ar       9.29229724      20.33953859      16.89501327       1.34597525      -1.98185798      -0.02437574      -1.70731487
Ar       9.60758881      21.13189420      20.06912456      -1.34597525      -0.68795731       0.36688563      -0.62922274
Ar      23.29744985      24.07320493      11.23433620       1.34597525       0.66666749       1.67805343       0.69459920
Ar       0.01788092      28.86205150      33.44050352       1.34597525      -1.00337165      -0.10305528      -0.81069259
Ar       1.16444498       7.50435912       3.77207823       1.34597525       2.09710783      -1.74858131      -0.12154412
Ar      14.29758987      28.16836337       8.10600220      -1.34597525       0.60901215      -0.57416945       0.00310286
Ar      34.47870533      22.82764106      27.97295037       1.34597525       0.19959014      -0.00975659      -1.45336530
Ar       2.75315696      13.43301320      20.93366986       1.34597525      -0.76226816      -0.50776447      -0.42203132
Ar      19.34925373      32.70951337      33.88985226       1.34597525       1.13828144       0.32895059       0.83620711
Ar       3.09861354      19.29097637       4.60395276       1.34597525      -0.39713686      -1.07563039       0.00248909
Ar       8.89473452       0.71465794      29.38859597       1.34597525       0.35603082       0.45551750      -0.48978295
Ar      11.21809566      20.57946094       5.08272981       1.34597525       0.01222901      -2.04376743      -0.19965508
Ar      23.97023039      12.82899428      13.68922445       1.34597525      -1.66687368       1.62964596       1.40977142
Ar      23.80938705      27.18327372      18.71400800      -1.34597525      -0.39324003       2.08836780      -1.03065952
Ar      33.14196746      19.00770584       3.90729937       1.34597525      -0.44725036       0.34728040       0.16440051
Ar      11.56255488       5.49447248       7.96150253       1.34597525       0.03135237       0.34154686      -0.44575940
Ar      16.80516798      27.30790822       5.40785931      -1.34597525      -0.33369458      -1.17667375      -0.23740925
Ar      27.85790591       8.14104852      18.07367580      -1.34597525      -0.92719335      -1.31963205       2.14370898
Ar      34.02498026       2.25051697      33.25714069      -1.34597525      -1.02860389       0.13816853       0.11339094
Ar      25.57824478       7.24743025       2.71762828      -1.34597525       1.23166543       1.15685287      -2.22646063
Ar      19.86562968      22.05430674      19.64603335      -1.34597525       0.47026577       1.04552252      -0.95027755
Ar      26.78247727      18.67944237       9.45873592       1.34597525       3.55410274       1.59015507      -0.71934302
Ar      14.51488374       0.49391015       7.09606524       1.34597525       0.09159812      -0.10618932      -0.65533535
Ar       7.05405621      14.08295310      30.71894951      -1.34597525      -0.88808467       1.17134328      -0.75989074
Ar      16.70415969      24.10112047      35.14625295      -1.34597525      -0.74517232       0.98576552       0.43599627
Ar       6.18671341       1.85443951      11.20554916       1.34597525      -1.89827213       0.53486189       1.59586552
Ar      22.63407516       0.44750486      30.30412648      -1.34597525      -0.08259296       0.55470034      -1.09257550
Ar      32.15934132       8.78737129       9.25241892       1.34597525       1.99264263      -1.45750286      -0.03602670
Ar      19.86110953      17.78928193      27.70970998       1.34597525      -1.62024998      -0.00665145      -0.31929300
Ar       1.91328749      32.71178970       9.38091196       1.34597525       0.76560781      -0.68378559      -1.46687677
Ar      35.04356680       9.59630640      11.66875433       1.34597525      -0.00899088       0.92225197      -0.67431106
Ar      20.36557484       3.96153413       4.13875294       1.34597525       0.00580182      -1.36939748       0.20943600
Ar      16.87500042       8.87907542       6.85860804      -1.34597525      -3.56272482      -1.17784856       0.99805137
Ar      20.33287693      13.42218513      24.16753171       1.34597525      -1.83650435      -0.16970989       1.36876923
Ar      29.43820887       1.48174374      10.46898111      -1.34597525       1.25937205      -0.16744664      -1.99375668
Ar      27.59306747       7.82425954      14.11667605       1.34597525      -0.27755696       1.49562767       1.36484501
Ar      14.02193376      23.28777714       3.57667443      -1.34597525      -1.08225870       1.36706270       0.42287825
Ar      27.70337772      16.06928985      27.78586452       1.34597525       0.39738552      -0.65590964       1.21024248
Ar       4.21726559      33.95014942       7.32328308      -1.34597525      -0.66743390       1.73090164       0.15661959
Ar      23.14729932      12.90694008      31.30060046      -1.34597525      -1.48321911      -1.72924492      -1.44852505
Ar      25.28113360      21.23948691      24.38740338      -1.34597525       1.64850471      -2.84638703       0.38049424
Ar      29.79979504      17.23360928       9.48715766      -1.34597525       1.20480778       0.13733278       1.41386236
Ar      13.41104120       2.61605742      32.55793748      -1.34597525       0.25404593       0.31397312      -2.06555165
Ar       7.61767589      33.10137057       7.22640781      -1.34597525      -0.12359424       0.22165673      -0.10529143
Ar      28.63008579      28.70481539       7.35605730      -1.34597525       0.40185374      -0.39642703       1.52623968
Ar      13.44807280       4.68024714      30.48049308       1.34597525       0.74365904      -0.55998806       0.47393184
Ar      31.98498629      20.74986235      23.32221214       1.34597525      -0.20932827      -0.02211904      -0.20792120
Ar      10.19266207       1.92353498      11.11432978       1.34597525      -0.54175098       1.28362160      -1.62903250
Ar       5.29739358       3.52768869      34.61687935      -1.34597525      -0.90837016      -0.92509716       1.54138931
Ar      13.99257621      26.30802385      19.44207877      -1.34597525       0.20658398       0.62444608       1.33365265
Ar      31.71489769      24.13074407      14.20687834       1.34597525       0.31939175       0.83339060      -0.31352750
Ar      32.81790349      15.84561237       8.06839619       1.34597525      -1.28534437      -1.11206177      -1.64611894
Ar      35.08065695      29.82810642      24.90734782       1.34597525      -1.43929292       0.77660864       1.57415758
Ar      32.84204531      26.07572504      31.07036562      -1.34597525      -1.09486859       0.88431724      -1.76082379
Ar      18.06104010      19.43556643      19.75130213       1.34597525       0.38165489       0.71732999       0.51476939
Ar      18.37552566      31.73911486      23.89603209       1.34597525      -1.87322960       0.03524900       1.22807173
Ar       0.53132721      22.42288268      12.40464193      -1.34597525       1.34374967      -2.32056079       0.73008068
Ar       7.92878423      29.14387793       4.60578354       1.34597525      -1.16858055      -3.18191861      -1.01921755
Ar      33.64200442       1.05461498      20.97234793      -1.34597525       0.34482688      -2.89150249       0.68434273
Ar      14.10979344      23.43560541      25.68593210      -1.34597525      -1.82645349       0.81701011      -0.91571578
Ar      13.84660575      15.95691900      17.04401127       1.34597525      -0.18946653       0.06290923      -0.17490011
Ar      25.97874616       1.80831433      25.28662884      -1.34597525      -0.04852036      -1.10221288      -0.55069411
Ar      13.92611503      17.45585246      24.39071022      -1.34597525      -2.80179821      -1.10866605      -0.05681116
Ar      17.53442427      17.34025235      33.06574062       1.34597525      -0.52476943      -0.06855498      -0.88076135
Ar      16.54614958      27.89351101      21.52543693       1.34597525       0.55252890      -0.30853857       1.16315530
Ar      27.38433408       4.59379143      29.42860582      -1.34597525       1.34807203       0.97096344       0.71666339
Ar      14.03787373      22.22119328      33.56269714      -1.34597525       1.04086598       0.85323391       0.32117007
Ar      13.99888355      25.39146430       6.34510459       1.34597525       0.03720777      -1.20814477      -1.72154190
Ar      11.81374078      20.69412073       0.48314788       1.34597525      -0.53545071       0.84213332       0.09910812
Ar      19.69820967      19.45341562      31.56612400      -1.34597525       0.06871532       0.02999266      -0.95772070
Ar      26.55508267      23.98186306      25.40153491       1.34597525      -1.06491834      -0.40715825       1.83767848
Ar      23.75313648      23.50908294      19.17838534      -1.34597525       0.58054159      -0.36909459      -0.20771589
Ar      12.48434953      26.28794206      28.62160565      -1.34597525      -1.61350226       0.98294443      -0.49995940
Ar      32.19597271      21.04214622      15.06771829      -1.34597525       1.46757565      -0.41427649      -0.77905587
Ar      16.98643720      20.69871649       4.29214738      -1.34597525      -0.10892849       0.66039901       0.58382930
Ar      25.94603068      15.90786329       6.38760938      -1.34597525       0.13298694       1.38542549       0.63201383
Ar      29.57729818      30.94530262       4.66374944      -1.34597525      -1.56776586      -0.15409762      -1.69518583
Ar      19.66792961      13.12478542       1.79570253       1.34597525      -1.23924370       1.79754079       1.11009823
Ar      32.92380193      30.88700182      31.21636131      -1.34597525      -1.56906368       1.02868197       1.02089570
Ar       9.46945607      23.47281113      16.23674347       1.34597525      -0.52304287       0.09970592      -0.00823754
Ar       9.61227867      22.23114188      33.68452446       1.34597525       0.11151726       0.82117151       1.35507529
Ar      30.86315843      10.46526811      27.90312112       1.34597525      -0.43564138      -0.10467309      -1.89079802
Ar      10.38984653      19.31695444      10.49655896       1.34597525      -2.59457352       0.05097847       0.22514732
Ar       0.92445504      33.65118761       5.20748700       1.34597525       0.31971212      -0.53933137       0.44852281
Ar      16.32477808      34.60607212      28.53536184       1.34597525       0.41575797       1.38792615       0.41778690
Ar       8.46517719      31.34308376      18.81351902       1.34597525      -0.66847415      -1.27838448      -1.73154858
Ar      24.03557642       9.73960631       1.01989601       1.34597525      -0.14965267      -1.84850212      -0.07081388
Ar      17.87585292      30.15668170      26.54348509      -1.34597525      -0.59359654       0.34268779       0.54624346
Ar      27.45116001      24.07276590       9.31179395      -1.34597525      -0.00908261      -0.84898697       0.07388123
Ar      31.44392019      21.63955644       4.32699721      -1.34597525       0.33630721       1.28396642       1.09222020
Ar      11.29540127       2.19074482       8.04838539      -1.34597525       0.82668604       0.33068570      -0.63207768
Ar      14.37088470      33.10179353      24.53894062       1.34597525      -0.77646703      -1.30479594       0.41093265
Ar       1.74194929       1.89290707       7.13211009       1.34597525      -0.48058614      -0.64593330      -1.35094598
Ar      11.26815997       5.18656563      11.00461873      -1.34597525       0.23536207      -1.29509883       0.77603110
Ar      19.24186639      26.33492581      19.00144971      -1.34597525       0.12132671      -1.94674595       3.35255613
Ar      29.82300110      26.96622873       3.26547044      -1.34597525      -0.18791480       0.78371002       0.97657131
Ar      21.26844208      24.89088987      31.76401804      -1.34597525      -1.23918356      -0.39708758      -0.49031966
Ar      30.07272238       1.88657150      14.14021166      -1.34597525      -0.70536278       1.62802413       0.05345654
Ar      27.10633311      28.53250075       3.20772644       1.34597525       1.44960551      -0.73298781       1.03495245
Ar      20.06172473       9.26842402       9.61332580      -1.34597525       0.03065184      -0.45020414       1.38300321
Ar      19.21243777      21.72042978       0.96849536      -1.34597525       1.37961566      -0.48487476       1.80798047
Ar      34.77976577      29.27498863      11.30257197       1.34597525      -0.05786231      -0.03024151      -0.01912229
Ar      16.97165757      33.53864177      21.86803574      -1.34597525      -0.78805160      -1.92453672       0.78592889
Ar      24.30704145      34.77138671      27.56433029       1.34597525       0.34165334       1.84199446       0.41110446
Ar      10.61910034      28.41656030      18.17257628       1.34597525       1.34239848      -0.56148109       0.58104737
Ar       1.68208094      34.28986899      26.65919666       1.34597525       1.03083244       2.04229734       1.47107713
Ar      27.69037153      11.02771870      27.16964353      -1.34597525       1.16871182      -1.39841290       0.39021460
Ar      10.73638165      23.01859537      30.06180251      -1.34597525       0.05478792       0.44778149      -0.18100883
Ar      21.42848850      30.71307408      35.18882224      -1.34597525       1.88476685       2.53291808      -0.09648703
Ar      12.25150295      30.24338308      23.91922780       1.34597525       1.16002225      -0.36852487      -0.09040431
Ar      10.80483266      11.39449447      26.10191411       1.34597525      -0.44582662       0.63512188       0.60207145
Ar      32.20209584      11.24040453      14.26889595      -1.34597525      -0.04545764      -3.46321701      -0.48625853
Ar      16.76535747      14.17309045      12.01235490       1.34597525       0.72193654      -0.66406974       2.54853600
Ar      25.28754503      11.58774072      29.33328343       1.34597525      -0.74635735      -2.35560302      -0.94477231
Ar       2.05175145      23.31068236      25.75473034      -1.34597525      -0.26023164      -0.83555748      -1.82738657
Ar      33.37739038       9.67895049       1.92498743       1.34597525      -0.03592576      -0.10675691       4.07177655
Ar      18.26734234      29.18701080      33.77595454      -1.34597525      -0.60417288       0.05834112       0.71416233
Ar      22.90130144      13.48435453       7.99598508      -1.34597525      -0.03983046       2.31203073      -0.62472962
Ar      13.00062598      15.12348169       3.51062790      -1.34597525       2.08600902      -0.98263781       1.69246979
Ar      11.89462361      29.74668468      34.85402595      -1.34597525       0.06399089       0.16793226      -0.97945203
Ar      16.73232969       7.30167662      12.84101652      -1.34597525      -1.39715502      -0.01889891       1.86619060
Ar      21.76019390      30.76948267      15.08588117      -1.34597525       2.48949978      -1.33459250       0.40317624
Ar       7.15022112      15.36515962      14.88998059      -1.34597525       1.37289427      -0.15285580       0.20967730
Ar      12.96626458      16.22476842       9.68807418       1.34597525      -0.54564422       1.58109323       0.22406260
Ar      26.42090317       8.19554444      28.49702916      -1.34597525       0.69689813      -0.01721509      -0.84922698
Ar      30.96083069      29.66061227      16.77004410      -1.34597525      -0.83866943       2.34224588      -0.08632104
Ar      13.32236863      31.54105039       8.18729023       1.34597525       0.02884843      -0.79058883      -2.36507295
Ar      33.81321782      23.38189932      23.14102610      -1.34597525      -1.65386584       0.69247258       1.11307106
Ar      18.06868771      34.52947124       6.34418145       1.34597525      -0.83470061       2.16674343       0.09647055
Ar      22.55955147      18.25866009      17.61414162       1.34597525       0.15893879      -0.56406079       0.07243608
Ar      21.80077945      11.83341076      35.06872566      -1.34597525      -0.17555384      -0.43001298       0.80880893
Ar       3.52620724      15.34538626       4.97258931       1.34597525      -0.22521605      -0.67267315      -1.64160791
Ar      31.75170259       3.58235552      10.66860727       1.34597525      -0.44844813       0.99363560       0.33465642
Ar      21.32878238       3.54526764      29.71161517       1.34597525       0.19459297      -1.44067365       0.19498389
Ar      35.06490109      35.08142953       8.57028507      -1.34597525       1.60717693       2.11874545       1.22858440
Ar      33.44713563       0.86140570      14.00984080      -1.34597525       0.02047239      -1.19925219      -0.84842147
Ar      26.66956712      15.91380745      17.89498496       1.34597525       1.57341638       0.24696571      -0.08998019
Ar       4.39895972       3.43760691       8.56703569      -1.34597525      -1.61076906      -0.86063907      -0.10941739
Ar      11.08467586      27.02308045       4.26154244      -1.34597525      -1.94357346       0.90867533       0.74371509
Ar      23.96152887      29.01162794      33.16805869      -1.34597525      -0.20803460       0.25871689       1.41432431
Ar       9.70533775       6.95145524      20.43142747      -1.34597525      -1.02414354       0.40997301       0.14573212
Ar       8.67728022       7.08170661      10.45474828       1.34597525      -1.43467672      -1.40898703      -1.01403963
Ar      34.45631111      10.37934643      26.60569406      -1.34597525      -0.27567087      -1.04500048       2.46047102
Ar      19.74768011      24.95999120       7.80276558       1.34597525       0.61069823       0.66574149       0.64231831
Ar      23.86949003      16.33440200       3.42896936       1.34597525      -0.10089288      -0.30607577       0.01679308
Ar       6.81747421      34.50594158       1.12823505       1.34597525       1.85486724      -0.18136471      -1.74756584
Ar       9.23052312      18.41238842       0.80393001      -1.34597525       1.49492082      -1.04226517      -2.31420365
Ar      21.40090799      33.12294018       9.05241140      -1.34597525      -1.51098413       0.57187676      -0.49626991
Ar      26.68804790      32.52087232       3.77747547       1.34597525       0.00614230       0.94186781       1.97564838
Ar      32.48339460      25.19533618       6.88108367      -1.34597525       2.94694773       0.00904515       0.94214933
Ar       3.09901316      21.55052877       0.68454041      -1.34597525      -0.09438150       1.17101611       0.67563677
Ar      35.16294624      12.48685656       9.76794083       1.34597525      -0.70473637      -1.10596333      -0.26988445
Ar       6.03931423      17.76740072      12.96337962       1.34597525       0.24310374       1.27829453       0.09694573
Ar       0.93494679       6.58871100      31.74131333      -1.34597525       1.14705005      -1.38433106       0.47251958
Ar       6.24119551      17.33279357       9.33500211       1.34597525      -2.42764010       0.51111042      -1.73836179
Ar      31.27306663      17.39622320      32.46081026       1.34597525      -0.58976998      -0.12938599      -1.28186541
Ar      21.05315446      26.74617068      16.50962104       1.34597525      -0.09370900       0.81005579      -0.89497680
Ar      10.91310794      34.24240651       7.69991513       1.34597525      -0.94335472       0.76395809      -1.08746532
Ar       7.88253730      10.92193701       9.81679610      -1.34597525       0.22489133      -1.20532113      -0.01526849
Ar       0.03718037       3.49603117       9.76069263      -1.34597525      -0.06419716       2.67187799      -0.39931709
Ar      29.28839559      11.40094317       6.36832906      -1.34597525      -1.78336183      -0.69820205       0.74391961
Ar       6.65127358       2.95414338       2.15662551       1.34597525       0.55608498      -0.79823763      -1.25418406
Ar       2.68413598      10.83291825       0.22514797       1.34597525       0.70950186      -0.60162439      -1.02515173
Ar      26.05601119      18.24599273      15.90699413      -1.34597525      -0.15882854       1.37670067      -1.86757035
Ar      18.71051031      29.28462981      13.46975758       1.34597525      -1.61740275       0.45102617      -2.23188618
Ar      29.55006666       3.20837038      31.09696522       1.34597525       0.63483510      -0.47731295       0.73373305
Ar      34.69551628      21.08941307      18.99677029      -1.34597525      -2.32028126       2.38682158      -1.21300196
Ar      25.02891588       1.45048662       0.52039469       1.34597525       1.31513177       0.91299290       0.08830290
Ar      26.44698338      12.77848869       8.92814411       1.34597525       0.35389155      -1.51779883       1.08011256
Ar       8.08034569      29.18573139       9.67006119       1.34597525       1.09818779      -0.11766898      -0.36177254
Ar       8.53494689      18.75834410       7.24698707      -1.34597525       0.60922207       0.11931009      -0.19360011
Ar      13.67787503      12.12388591       1.01929274      -1.34597525      -0.06686614      -0.08090546      -1.67787440
Ar       7.78163445      21.79096500       4.17207306      -1.34597525       0.03824925       0.55978877      -0.24123737
Ar       7.71616272      21.93219648      30.63411863       1.34597525       2.11956080       0.36323977      -1.02522916
Ar      20.13164665      35.04554925      11.69381716      -1.34597525       0.29595264       0.84959460      -0.32902537
Ar      32.16266021      16.14535407      28.51390748      -1.34597525      -1.87437396      -0.27274695      -2.32029073
Ar      27.30863809       8.31176227       5.31574224       1.34597525       0.73397550      -0.66850810       0.14256977
Ar      28.69850148      19.58337621      24.87254747       1.34597525      -0.81275358       0.71640926       1.05897490
Ar      33.32684838       7.82722669      29.98692435      -1.34597525       0.38730386      -0.20500673       0.70137998
Ar      16.05307758      19.91862693      17.12727260       1.34597525       0.18112631       0.22408620       0.07636963
Ar      26.21071986      13.13391200       4.21773857       1.34597525       1.84508911       0.52251769      -1.83448242
Ar      24.74165156      26.66303229      27.73369305       1.34597525      -0.85657399       0.19930100       0.94784196
Ar       3.68306674      31.14898914      35.23952646       1.34597525      -1.01068294      -0.03382439       0.86607379
Ar      21.69326101      10.13078836      23.88815946      -1.34597525       1.46533528      -0.34722868       1.56028866
Ar      18.67253108      30.04981970      30.66385099       1.34597525      -0.32543639       0.62234976       0.30368948
Ar      22.25688325      10.01575173       3.89090939      -1.34597525      -1.21179560      -0.52780037      -0.22713888
Ar      27.80324054       8.56033401      31.74171415       1.34597525       0.55730418       0.13157089       0.44939926
Ar      28.63313744      17.18417667      22.22854619       1.34597525       1.60115058       0.27529320       0.06563905
Ar       4.85871304       7.69724140       4.98606984       1.34597525      -0.33107771      -0.57651195       0.93608580
Ar      34.57339000       5.67342720      22.43947361      -1.34597525       1.06837758      -0.88856199      -0.99159915
Ar      17.08991402      23.89499413      11.36716321       1.34597525       0.43933615      -0.19107883      -0.09137041
Ar       5.69410737       6.62099465      27.52739510      -1.34597525       0.11546602      -0.72185365       0.40375604
Ar      30.02887623      14.86240356      21.09441688      -1.34597525       0.93284404      -0.24700063      -2.44305642
Ar       5.40318734       8.85881009      33.21037867      -1.34597525       0.82343327       0.42851089      -0.50886555
Ar       6.19614195       5.53230703      31.80569973       1.34597525      -0.41204979       0.93433787       0.12805753
Ar      16.19860568      15.72557487      27.99749325       1.34597525      -0.40596379       0.28851043      -0.84474708
Ar      11.14267424       6.89478755      31.10118922      -1.34597525       2.13608397      -1.95842682      -0.64255826
Ar      25.57466045      17.07041283      20.59425089      -1.34597525      -0.54187403       0.28857591      -0.77028313
Ar       6.03279892       3.02478870      29.47933486      -1.34597525      -1.39911802      -0.79631908       0.96435008
Ar      30.51760684      11.57042478      19.88962575       1.34597525      -2.83026979       0.71958243      -1.01447904
Ar       8.89509674      16.03617046      33.99040680       1.34597525       0.45413421       0.56730193      -1.54018917
Ar      19.34945447      25.23952572       4.57348096      -1.34597525       2.17132813       0.86990709       1.45072464
Ar       5.56137836      24.89818720      25.74607062       1.34597525      -0.47803304       0.49725640       0.06656874
Ar      28.20269401      17.77618501       5.91627871       1.34597525      -2.45806561       0.63928139       1.21257338
Ar      22.61136286      19.77330994      23.96883285       1.34597525      -0.53471895      -0.68968004      -0.19011243
Ar      25.46530562      10.41616795      15.30251534      -1.34597525      -0.37773496       1.60405406       0.19183671
Ar      30.02097267      22.02034482      27.80036843      -1.34597525       1.55246937      -1.36419455       0.56820745
Ar      11.53490548      23.39315766      27.12758465       1.34597525      -1.07873885       2.12328584       1.45918288
Ar       4.29943677      32.11235721      30.21759850       1.34597525      -0.38972839      -2.61363898       0.68158205
Ar      21.84103626      22.75423048      25.68810342      -1.34597525      -0.46485258       0.64786456      -1.41079269
Ar      16.18841947       4.07953524      12.76082287       1.34597525       1.43606189      -0.25267680      -0.05771083
Ar      14.72218081       8.52706724       0.77289905      -1.34597525       1.65698909      -1.07721937       1.35997443
Ar       5.80396464      17.47225161      27.92487158      -1.34597525      -0.02120325       0.05606948       0.34703318
Ar      15.51153376       2.31381156      16.29577969       1.34597525      -0.63269705      -0.50292387      -1.12536625
Ar      33.44338267      10.90466778      21.77591362      -1.34597525      -2.86132919      -0.06005613       1.28143702
Ar       9.43948721      18.97931323      32.11031122      -1.34597525       1.09348582      -0.04515491       0.70750557
Ar       4.72083317       1.74892486      26.58658548       1.34597525       2.16867677      -1.63991873       1.14247381
Ar      25.00187962      27.97524842      10.65638597      -1.34597525      -1.29705963      -0.09163534       1.58419146
Ar       2.63068023       9.51361732       9.80122627      -1.34597525       0.75204286       0.56159968      -0.03762345
Ar      13.93743200      10.50551188      22.97466307       1.34597525      -0.33409206      -1.35723391       1.46469211
Ar      21.70465222       3.55381108      14.97928385       1.34597525       0.26603460      -2.65391290      -0.87842880
Ar      11.06337522      27.54119198      25.87347621       1.34597525      -0.92350495       0.27024987      -0.36729172
Ar      13.04354929      31.04612560       1.93105523       1.34597525      -1.55310770      -1.04266891       0.38486121
Ar       0.80190406      29.78395466      17.03947278       1.34597525      -0.17612750       0.55028428      -1.46150332
Ar      31.34026204       0.89853478       8.03491911       1.34597525       0.31757929       0.01299012       0.00272946
