12
Lattice="5.516052 0.0 0.0 0.0 5.516052 0.0 0.0 0.0 5.516052" Properties=species:S:1:pos:R:3:spacegroup_kinds:I:1 spacegroup="P 1" unit_cell=conventional occupancy="_JSON {\"0\": {\"Ca\": 1}, \"1\": {\"Ca\": 1}, \"2\": {\"Ca\": 1}, \"3\": {\"Ca\": 1}, \"4\": {\"F\": 1}, \"5\": {\"F\": 1}, \"6\": {\"F\": 1}, \"7\": {\"F\": 1}, \"8\": {\"F\": 1}, \"9\": {\"F\": 1}, \"10\": {\"F\": 1}, \"11\": {\"F\": 1}}" pbc="T T T"
Ca       0.00000000       0.00000000       0.00000000        0
Ca       0.00000000       2.75802600       2.75802600        1
Ca       2.75802600       0.00000000       2.75802600        2
Ca       2.75802600       2.75802600       0.00000000        3
F        1.37901300       4.13703900       4.13703900        4
F        1.37901300       1.37901300       4.13703900        5
F        1.37901300       1.37901300       1.37901300        6
F        1.37901300       4.13703900       1.37901300        7
F        4.13703900       4.13703900       1.37901300        8
F        4.13703900       1.37901300       1.37901300        9
F        4.13703900       1.37901300       4.13703900       10
F        4.13703900       4.13703900       4.13703900       11
