8
Lattice="5.45027 0.0 0.0 0.0 5.45027 0.0 0.0 0.0 5.45027" Properties=species:S:1:pos:R:3:spacegroup_kinds:I:1 spacegroup="P 1" unit_cell=conventional occupancy="_JSON {\"0\": {\"Zn\": 1}, \"1\": {\"Zn\": 1}, \"2\": {\"Zn\": 1}, \"3\": {\"Zn\": 1}, \"4\": {\"S\": 1}, \"5\": {\"S\": 1}, \"6\": {\"S\": 1}, \"7\": {\"S\": 1}}" pbc="T T T"
Zn       0.00000000       0.00000000       0.00000000        0
Zn       0.00000000       2.72513500       2.72513500        1
Zn       2.72513500       0.00000000       2.72513500        2
Zn       2.72513500       2.72513500       0.00000000        3
S        1.36256750       1.36256750       4.08770250        4
S        1.36256750       4.08770250       1.36256750        5
S        4.08770250       1.36256750       1.36256750        6
S        4.08770250       4.08770250       4.08770250        7
