12

Ca      0.000000000000000      0.000000000000000      0.000000000000000
Ca      0.000000000000000      2.758026000000000      2.758026000000000
Ca      2.758026000000000      0.000000000000000      2.758026000000000
Ca      2.758026000000000      2.758026000000000      0.000000000000000
F       1.379013000000000      4.137039000000000      4.137039000000000
F       1.379013000000000      1.379013000000000      4.137039000000000
F       1.379013000000000      1.379013000000000      1.379013000000000
F       1.379013000000000      4.137039000000000      1.379013000000000
F       4.137039000000000      4.137039000000000      1.379013000000000
F       4.137039000000000      1.379013000000000      1.379013000000000
F       4.137039000000000      1.379013000000000      4.137039000000000
F       4.137039000000000      4.137039000000000      4.137039000000000
