8
Lattice="5.691694 0.0 0.0 0.0 5.691694 0.0 0.0 0.0 5.691694" Properties=species:S:1:pos:R:3:spacegroup_kinds:I:1 spacegroup="P 1" unit_cell=conventional occupancy="_JSON {\"0\": {\"Na\": 1}, \"1\": {\"Na\": 1}, \"2\": {\"Na\": 1}, \"3\": {\"Na\": 1}, \"4\": {\"Cl\": 1}, \"5\": {\"Cl\": 1}, \"6\": {\"Cl\": 1}, \"7\": {\"Cl\": 1}}" pbc="T T T"
Na       0.00000000       0.00000000       0.00000000        0
Na       0.00000000       2.84584700       2.84584700        1
Na       2.84584700       0.00000000       2.84584700        2
Na       2.84584700       2.84584700       0.00000000        3
Cl       2.84584700       0.00000000       0.00000000        4
Cl       2.84584700       2.84584700       2.84584700        5
Cl       0.00000000       0.00000000       2.84584700        6
Cl       0.00000000       2.84584700       0.00000000        7
