8

Na      0.000000000000000      0.000000000000000      0.000000000000000
Na      0.000000000000000      2.845847000000000      2.845847000000000
Na      2.845847000000000      0.000000000000000      2.845847000000000
Na      2.845847000000000      2.845847000000000      0.000000000000000
Cl      2.845847000000000      0.000000000000000      0.000000000000000
Cl      2.845847000000000      2.845847000000000      2.845847000000000
Cl      0.000000000000000      0.000000000000000      2.845847000000000
Cl      0.000000000000000      2.845847000000000      0.000000000000000
