8

Zn      0.000000000000000      0.000000000000000      0.000000000000000
Zn      0.000000000000000      2.725135000000000      2.725135000000000
Zn      2.725135000000000      0.000000000000000      2.725135000000000
Zn      2.725135000000000      2.725135000000000      0.000000000000000
S       1.362567500000000      1.362567500000000      4.087702500000000
S       1.362567500000000      4.087702500000000      1.362567500000000
S       4.087702500000000      1.362567500000000      1.362567500000000
S       4.087702500000000      4.087702500000000      4.087702500000000
